*SPEF "ieee 1481-1999"
*DESIGN "counter_4bit"
*DATE "02:14:59 Monday December 01, 2025"
*VENDOR "The OpenROAD Project"
*PROGRAM "OpenROAD"
*VERSION "edf00dff99f6c40d67a30c0e22a8191c5d2ed9d6"
*DESIGN_FLOW "NAME_SCOPE LOCAL" "PIN_CAP NONE"
*DIVIDER /
*DELIMITER :
*BUS_DELIMITER []
*T_UNIT 1 NS
*C_UNIT 1 PF
*R_UNIT 1 OHM
*L_UNIT 1 HENRY

*NAME_MAP
*3 clk
*4 count[0]
*5 count[1]
*6 count[2]
*7 count[3]
*8 rst_n
*9 _00_
*10 _01_
*11 _02_
*12 _03_
*13 _04_
*14 _05_
*15 clknet_0_clk
*16 clknet_1_0__leaf_clk
*17 clknet_1_1__leaf_clk
*18 net1
*19 net2
*20 net3
*21 net4
*22 net5
*23 net6
*24 net7
*25 net8
*26 net9
*27 FILLER_0_109
*28 FILLER_0_113
*29 FILLER_0_125
*30 FILLER_0_137
*31 FILLER_0_141
*32 FILLER_0_15
*33 FILLER_0_153
*34 FILLER_0_165
*35 FILLER_0_169
*36 FILLER_0_181
*37 FILLER_0_193
*38 FILLER_0_197
*39 FILLER_0_209
*40 FILLER_0_221
*41 FILLER_0_225
*42 FILLER_0_237
*43 FILLER_0_249
*44 FILLER_0_253
*45 FILLER_0_265
*46 FILLER_0_27
*47 FILLER_0_277
*48 FILLER_0_281
*49 FILLER_0_29
*50 FILLER_0_293
*51 FILLER_0_3
*52 FILLER_0_305
*53 FILLER_0_309
*54 FILLER_0_321
*55 FILLER_0_333
*56 FILLER_0_337
*57 FILLER_0_349
*58 FILLER_0_361
*59 FILLER_0_365
*60 FILLER_0_377
*61 FILLER_0_389
*62 FILLER_0_393
*63 FILLER_0_405
*64 FILLER_0_41
*65 FILLER_0_53
*66 FILLER_0_57
*67 FILLER_0_69
*68 FILLER_0_81
*69 FILLER_0_85
*70 FILLER_0_97
*71 FILLER_10_109
*72 FILLER_10_121
*73 FILLER_10_133
*74 FILLER_10_139
*75 FILLER_10_141
*76 FILLER_10_15
*77 FILLER_10_153
*78 FILLER_10_165
*79 FILLER_10_177
*80 FILLER_10_189
*81 FILLER_10_195
*82 FILLER_10_197
*83 FILLER_10_209
*84 FILLER_10_221
*85 FILLER_10_233
*86 FILLER_10_245
*87 FILLER_10_251
*88 FILLER_10_253
*89 FILLER_10_265
*90 FILLER_10_27
*91 FILLER_10_277
*92 FILLER_10_289
*93 FILLER_10_29
*94 FILLER_10_3
*95 FILLER_10_301
*96 FILLER_10_307
*97 FILLER_10_309
*98 FILLER_10_321
*99 FILLER_10_333
*100 FILLER_10_345
*101 FILLER_10_357
*102 FILLER_10_363
*103 FILLER_10_365
*104 FILLER_10_377
*105 FILLER_10_389
*106 FILLER_10_401
*107 FILLER_10_41
*108 FILLER_10_53
*109 FILLER_10_65
*110 FILLER_10_77
*111 FILLER_10_83
*112 FILLER_10_85
*113 FILLER_10_97
*114 FILLER_11_105
*115 FILLER_11_111
*116 FILLER_11_113
*117 FILLER_11_125
*118 FILLER_11_137
*119 FILLER_11_149
*120 FILLER_11_15
*121 FILLER_11_161
*122 FILLER_11_167
*123 FILLER_11_169
*124 FILLER_11_181
*125 FILLER_11_193
*126 FILLER_11_205
*127 FILLER_11_217
*128 FILLER_11_223
*129 FILLER_11_225
*130 FILLER_11_237
*131 FILLER_11_249
*132 FILLER_11_261
*133 FILLER_11_27
*134 FILLER_11_273
*135 FILLER_11_279
*136 FILLER_11_281
*137 FILLER_11_293
*138 FILLER_11_3
*139 FILLER_11_305
*140 FILLER_11_317
*141 FILLER_11_329
*142 FILLER_11_335
*143 FILLER_11_337
*144 FILLER_11_349
*145 FILLER_11_361
*146 FILLER_11_373
*147 FILLER_11_385
*148 FILLER_11_39
*149 FILLER_11_391
*150 FILLER_11_393
*151 FILLER_11_405
*152 FILLER_11_51
*153 FILLER_11_55
*154 FILLER_11_57
*155 FILLER_11_69
*156 FILLER_11_81
*157 FILLER_11_93
*158 FILLER_12_109
*159 FILLER_12_121
*160 FILLER_12_133
*161 FILLER_12_139
*162 FILLER_12_141
*163 FILLER_12_15
*164 FILLER_12_153
*165 FILLER_12_165
*166 FILLER_12_177
*167 FILLER_12_189
*168 FILLER_12_195
*169 FILLER_12_197
*170 FILLER_12_209
*171 FILLER_12_221
*172 FILLER_12_233
*173 FILLER_12_245
*174 FILLER_12_251
*175 FILLER_12_253
*176 FILLER_12_265
*177 FILLER_12_27
*178 FILLER_12_277
*179 FILLER_12_289
*180 FILLER_12_29
*181 FILLER_12_3
*182 FILLER_12_301
*183 FILLER_12_307
*184 FILLER_12_309
*185 FILLER_12_321
*186 FILLER_12_333
*187 FILLER_12_345
*188 FILLER_12_357
*189 FILLER_12_363
*190 FILLER_12_365
*191 FILLER_12_377
*192 FILLER_12_389
*193 FILLER_12_401
*194 FILLER_12_41
*195 FILLER_12_53
*196 FILLER_12_65
*197 FILLER_12_77
*198 FILLER_12_83
*199 FILLER_12_85
*200 FILLER_12_97
*201 FILLER_13_105
*202 FILLER_13_111
*203 FILLER_13_113
*204 FILLER_13_125
*205 FILLER_13_137
*206 FILLER_13_149
*207 FILLER_13_15
*208 FILLER_13_161
*209 FILLER_13_167
*210 FILLER_13_169
*211 FILLER_13_181
*212 FILLER_13_193
*213 FILLER_13_205
*214 FILLER_13_217
*215 FILLER_13_223
*216 FILLER_13_225
*217 FILLER_13_237
*218 FILLER_13_249
*219 FILLER_13_261
*220 FILLER_13_27
*221 FILLER_13_273
*222 FILLER_13_279
*223 FILLER_13_281
*224 FILLER_13_293
*225 FILLER_13_3
*226 FILLER_13_305
*227 FILLER_13_317
*228 FILLER_13_329
*229 FILLER_13_335
*230 FILLER_13_337
*231 FILLER_13_349
*232 FILLER_13_361
*233 FILLER_13_373
*234 FILLER_13_385
*235 FILLER_13_39
*236 FILLER_13_391
*237 FILLER_13_393
*238 FILLER_13_405
*239 FILLER_13_51
*240 FILLER_13_55
*241 FILLER_13_57
*242 FILLER_13_69
*243 FILLER_13_81
*244 FILLER_13_93
*245 FILLER_14_109
*246 FILLER_14_121
*247 FILLER_14_133
*248 FILLER_14_139
*249 FILLER_14_141
*250 FILLER_14_15
*251 FILLER_14_153
*252 FILLER_14_165
*253 FILLER_14_177
*254 FILLER_14_189
*255 FILLER_14_195
*256 FILLER_14_197
*257 FILLER_14_209
*258 FILLER_14_221
*259 FILLER_14_233
*260 FILLER_14_245
*261 FILLER_14_251
*262 FILLER_14_253
*263 FILLER_14_265
*264 FILLER_14_27
*265 FILLER_14_277
*266 FILLER_14_289
*267 FILLER_14_29
*268 FILLER_14_3
*269 FILLER_14_301
*270 FILLER_14_307
*271 FILLER_14_309
*272 FILLER_14_321
*273 FILLER_14_333
*274 FILLER_14_345
*275 FILLER_14_357
*276 FILLER_14_363
*277 FILLER_14_365
*278 FILLER_14_377
*279 FILLER_14_389
*280 FILLER_14_401
*281 FILLER_14_41
*282 FILLER_14_53
*283 FILLER_14_65
*284 FILLER_14_77
*285 FILLER_14_83
*286 FILLER_14_85
*287 FILLER_14_97
*288 FILLER_15_105
*289 FILLER_15_111
*290 FILLER_15_113
*291 FILLER_15_125
*292 FILLER_15_137
*293 FILLER_15_149
*294 FILLER_15_15
*295 FILLER_15_161
*296 FILLER_15_167
*297 FILLER_15_169
*298 FILLER_15_181
*299 FILLER_15_193
*300 FILLER_15_205
*301 FILLER_15_217
*302 FILLER_15_223
*303 FILLER_15_225
*304 FILLER_15_237
*305 FILLER_15_249
*306 FILLER_15_261
*307 FILLER_15_27
*308 FILLER_15_273
*309 FILLER_15_279
*310 FILLER_15_281
*311 FILLER_15_293
*312 FILLER_15_3
*313 FILLER_15_305
*314 FILLER_15_317
*315 FILLER_15_329
*316 FILLER_15_335
*317 FILLER_15_337
*318 FILLER_15_349
*319 FILLER_15_361
*320 FILLER_15_373
*321 FILLER_15_385
*322 FILLER_15_39
*323 FILLER_15_391
*324 FILLER_15_393
*325 FILLER_15_405
*326 FILLER_15_51
*327 FILLER_15_55
*328 FILLER_15_57
*329 FILLER_15_69
*330 FILLER_15_81
*331 FILLER_15_93
*332 FILLER_16_109
*333 FILLER_16_121
*334 FILLER_16_133
*335 FILLER_16_139
*336 FILLER_16_141
*337 FILLER_16_15
*338 FILLER_16_153
*339 FILLER_16_165
*340 FILLER_16_177
*341 FILLER_16_189
*342 FILLER_16_195
*343 FILLER_16_197
*344 FILLER_16_209
*345 FILLER_16_221
*346 FILLER_16_233
*347 FILLER_16_245
*348 FILLER_16_251
*349 FILLER_16_253
*350 FILLER_16_265
*351 FILLER_16_27
*352 FILLER_16_277
*353 FILLER_16_289
*354 FILLER_16_29
*355 FILLER_16_3
*356 FILLER_16_301
*357 FILLER_16_307
*358 FILLER_16_309
*359 FILLER_16_321
*360 FILLER_16_333
*361 FILLER_16_345
*362 FILLER_16_357
*363 FILLER_16_363
*364 FILLER_16_365
*365 FILLER_16_377
*366 FILLER_16_389
*367 FILLER_16_401
*368 FILLER_16_41
*369 FILLER_16_53
*370 FILLER_16_65
*371 FILLER_16_77
*372 FILLER_16_83
*373 FILLER_16_85
*374 FILLER_16_97
*375 FILLER_17_105
*376 FILLER_17_111
*377 FILLER_17_113
*378 FILLER_17_125
*379 FILLER_17_137
*380 FILLER_17_149
*381 FILLER_17_15
*382 FILLER_17_161
*383 FILLER_17_167
*384 FILLER_17_169
*385 FILLER_17_181
*386 FILLER_17_193
*387 FILLER_17_205
*388 FILLER_17_217
*389 FILLER_17_223
*390 FILLER_17_225
*391 FILLER_17_237
*392 FILLER_17_249
*393 FILLER_17_261
*394 FILLER_17_27
*395 FILLER_17_273
*396 FILLER_17_279
*397 FILLER_17_281
*398 FILLER_17_293
*399 FILLER_17_3
*400 FILLER_17_305
*401 FILLER_17_317
*402 FILLER_17_329
*403 FILLER_17_335
*404 FILLER_17_337
*405 FILLER_17_349
*406 FILLER_17_361
*407 FILLER_17_373
*408 FILLER_17_385
*409 FILLER_17_39
*410 FILLER_17_391
*411 FILLER_17_393
*412 FILLER_17_405
*413 FILLER_17_51
*414 FILLER_17_55
*415 FILLER_17_57
*416 FILLER_17_69
*417 FILLER_17_81
*418 FILLER_17_93
*419 FILLER_18_109
*420 FILLER_18_121
*421 FILLER_18_133
*422 FILLER_18_139
*423 FILLER_18_141
*424 FILLER_18_15
*425 FILLER_18_153
*426 FILLER_18_165
*427 FILLER_18_177
*428 FILLER_18_189
*429 FILLER_18_195
*430 FILLER_18_197
*431 FILLER_18_209
*432 FILLER_18_221
*433 FILLER_18_233
*434 FILLER_18_245
*435 FILLER_18_251
*436 FILLER_18_253
*437 FILLER_18_265
*438 FILLER_18_27
*439 FILLER_18_277
*440 FILLER_18_289
*441 FILLER_18_29
*442 FILLER_18_3
*443 FILLER_18_301
*444 FILLER_18_307
*445 FILLER_18_309
*446 FILLER_18_321
*447 FILLER_18_333
*448 FILLER_18_345
*449 FILLER_18_357
*450 FILLER_18_363
*451 FILLER_18_365
*452 FILLER_18_377
*453 FILLER_18_389
*454 FILLER_18_401
*455 FILLER_18_41
*456 FILLER_18_53
*457 FILLER_18_65
*458 FILLER_18_77
*459 FILLER_18_83
*460 FILLER_18_85
*461 FILLER_18_97
*462 FILLER_19_105
*463 FILLER_19_111
*464 FILLER_19_113
*465 FILLER_19_125
*466 FILLER_19_137
*467 FILLER_19_149
*468 FILLER_19_15
*469 FILLER_19_161
*470 FILLER_19_167
*471 FILLER_19_169
*472 FILLER_19_181
*473 FILLER_19_193
*474 FILLER_19_205
*475 FILLER_19_217
*476 FILLER_19_223
*477 FILLER_19_225
*478 FILLER_19_237
*479 FILLER_19_249
*480 FILLER_19_261
*481 FILLER_19_27
*482 FILLER_19_273
*483 FILLER_19_279
*484 FILLER_19_281
*485 FILLER_19_293
*486 FILLER_19_3
*487 FILLER_19_305
*488 FILLER_19_317
*489 FILLER_19_329
*490 FILLER_19_335
*491 FILLER_19_337
*492 FILLER_19_349
*493 FILLER_19_361
*494 FILLER_19_373
*495 FILLER_19_385
*496 FILLER_19_39
*497 FILLER_19_391
*498 FILLER_19_393
*499 FILLER_19_405
*500 FILLER_19_51
*501 FILLER_19_55
*502 FILLER_19_57
*503 FILLER_19_69
*504 FILLER_19_81
*505 FILLER_19_93
*506 FILLER_1_105
*507 FILLER_1_111
*508 FILLER_1_113
*509 FILLER_1_125
*510 FILLER_1_137
*511 FILLER_1_149
*512 FILLER_1_15
*513 FILLER_1_161
*514 FILLER_1_167
*515 FILLER_1_169
*516 FILLER_1_181
*517 FILLER_1_193
*518 FILLER_1_205
*519 FILLER_1_217
*520 FILLER_1_223
*521 FILLER_1_225
*522 FILLER_1_237
*523 FILLER_1_249
*524 FILLER_1_261
*525 FILLER_1_27
*526 FILLER_1_273
*527 FILLER_1_279
*528 FILLER_1_281
*529 FILLER_1_293
*530 FILLER_1_3
*531 FILLER_1_305
*532 FILLER_1_317
*533 FILLER_1_329
*534 FILLER_1_335
*535 FILLER_1_337
*536 FILLER_1_349
*537 FILLER_1_361
*538 FILLER_1_373
*539 FILLER_1_385
*540 FILLER_1_39
*541 FILLER_1_391
*542 FILLER_1_393
*543 FILLER_1_405
*544 FILLER_1_51
*545 FILLER_1_55
*546 FILLER_1_57
*547 FILLER_1_69
*548 FILLER_1_81
*549 FILLER_1_93
*550 FILLER_20_109
*551 FILLER_20_121
*552 FILLER_20_133
*553 FILLER_20_139
*554 FILLER_20_141
*555 FILLER_20_15
*556 FILLER_20_153
*557 FILLER_20_165
*558 FILLER_20_177
*559 FILLER_20_189
*560 FILLER_20_195
*561 FILLER_20_197
*562 FILLER_20_209
*563 FILLER_20_221
*564 FILLER_20_233
*565 FILLER_20_245
*566 FILLER_20_251
*567 FILLER_20_253
*568 FILLER_20_265
*569 FILLER_20_27
*570 FILLER_20_277
*571 FILLER_20_289
*572 FILLER_20_29
*573 FILLER_20_3
*574 FILLER_20_301
*575 FILLER_20_307
*576 FILLER_20_309
*577 FILLER_20_321
*578 FILLER_20_333
*579 FILLER_20_345
*580 FILLER_20_357
*581 FILLER_20_363
*582 FILLER_20_365
*583 FILLER_20_377
*584 FILLER_20_389
*585 FILLER_20_401
*586 FILLER_20_41
*587 FILLER_20_53
*588 FILLER_20_65
*589 FILLER_20_77
*590 FILLER_20_83
*591 FILLER_20_85
*592 FILLER_20_97
*593 FILLER_21_105
*594 FILLER_21_111
*595 FILLER_21_113
*596 FILLER_21_125
*597 FILLER_21_137
*598 FILLER_21_149
*599 FILLER_21_15
*600 FILLER_21_161
*601 FILLER_21_167
*602 FILLER_21_169
*603 FILLER_21_181
*604 FILLER_21_193
*605 FILLER_21_205
*606 FILLER_21_217
*607 FILLER_21_223
*608 FILLER_21_225
*609 FILLER_21_237
*610 FILLER_21_249
*611 FILLER_21_261
*612 FILLER_21_27
*613 FILLER_21_273
*614 FILLER_21_279
*615 FILLER_21_281
*616 FILLER_21_293
*617 FILLER_21_3
*618 FILLER_21_305
*619 FILLER_21_317
*620 FILLER_21_329
*621 FILLER_21_335
*622 FILLER_21_337
*623 FILLER_21_349
*624 FILLER_21_361
*625 FILLER_21_373
*626 FILLER_21_385
*627 FILLER_21_39
*628 FILLER_21_391
*629 FILLER_21_393
*630 FILLER_21_405
*631 FILLER_21_51
*632 FILLER_21_55
*633 FILLER_21_57
*634 FILLER_21_69
*635 FILLER_21_81
*636 FILLER_21_93
*637 FILLER_22_109
*638 FILLER_22_121
*639 FILLER_22_133
*640 FILLER_22_139
*641 FILLER_22_141
*642 FILLER_22_15
*643 FILLER_22_153
*644 FILLER_22_165
*645 FILLER_22_177
*646 FILLER_22_189
*647 FILLER_22_195
*648 FILLER_22_197
*649 FILLER_22_209
*650 FILLER_22_221
*651 FILLER_22_233
*652 FILLER_22_245
*653 FILLER_22_251
*654 FILLER_22_253
*655 FILLER_22_265
*656 FILLER_22_27
*657 FILLER_22_277
*658 FILLER_22_289
*659 FILLER_22_29
*660 FILLER_22_3
*661 FILLER_22_301
*662 FILLER_22_307
*663 FILLER_22_309
*664 FILLER_22_321
*665 FILLER_22_333
*666 FILLER_22_345
*667 FILLER_22_357
*668 FILLER_22_363
*669 FILLER_22_365
*670 FILLER_22_377
*671 FILLER_22_389
*672 FILLER_22_401
*673 FILLER_22_41
*674 FILLER_22_53
*675 FILLER_22_65
*676 FILLER_22_77
*677 FILLER_22_83
*678 FILLER_22_85
*679 FILLER_22_97
*680 FILLER_23_105
*681 FILLER_23_111
*682 FILLER_23_113
*683 FILLER_23_125
*684 FILLER_23_137
*685 FILLER_23_149
*686 FILLER_23_15
*687 FILLER_23_161
*688 FILLER_23_167
*689 FILLER_23_169
*690 FILLER_23_181
*691 FILLER_23_193
*692 FILLER_23_205
*693 FILLER_23_217
*694 FILLER_23_223
*695 FILLER_23_225
*696 FILLER_23_237
*697 FILLER_23_249
*698 FILLER_23_261
*699 FILLER_23_27
*700 FILLER_23_273
*701 FILLER_23_279
*702 FILLER_23_281
*703 FILLER_23_293
*704 FILLER_23_3
*705 FILLER_23_305
*706 FILLER_23_317
*707 FILLER_23_329
*708 FILLER_23_335
*709 FILLER_23_337
*710 FILLER_23_349
*711 FILLER_23_361
*712 FILLER_23_373
*713 FILLER_23_385
*714 FILLER_23_39
*715 FILLER_23_391
*716 FILLER_23_393
*717 FILLER_23_405
*718 FILLER_23_51
*719 FILLER_23_55
*720 FILLER_23_57
*721 FILLER_23_69
*722 FILLER_23_81
*723 FILLER_23_93
*724 FILLER_24_109
*725 FILLER_24_121
*726 FILLER_24_133
*727 FILLER_24_139
*728 FILLER_24_141
*729 FILLER_24_15
*730 FILLER_24_153
*731 FILLER_24_165
*732 FILLER_24_177
*733 FILLER_24_189
*734 FILLER_24_195
*735 FILLER_24_197
*736 FILLER_24_209
*737 FILLER_24_221
*738 FILLER_24_233
*739 FILLER_24_245
*740 FILLER_24_251
*741 FILLER_24_253
*742 FILLER_24_265
*743 FILLER_24_27
*744 FILLER_24_277
*745 FILLER_24_289
*746 FILLER_24_29
*747 FILLER_24_3
*748 FILLER_24_301
*749 FILLER_24_307
*750 FILLER_24_309
*751 FILLER_24_321
*752 FILLER_24_333
*753 FILLER_24_345
*754 FILLER_24_357
*755 FILLER_24_363
*756 FILLER_24_365
*757 FILLER_24_377
*758 FILLER_24_389
*759 FILLER_24_401
*760 FILLER_24_41
*761 FILLER_24_53
*762 FILLER_24_65
*763 FILLER_24_77
*764 FILLER_24_83
*765 FILLER_24_85
*766 FILLER_24_97
*767 FILLER_25_105
*768 FILLER_25_111
*769 FILLER_25_113
*770 FILLER_25_125
*771 FILLER_25_137
*772 FILLER_25_149
*773 FILLER_25_15
*774 FILLER_25_161
*775 FILLER_25_167
*776 FILLER_25_169
*777 FILLER_25_181
*778 FILLER_25_193
*779 FILLER_25_205
*780 FILLER_25_217
*781 FILLER_25_223
*782 FILLER_25_225
*783 FILLER_25_237
*784 FILLER_25_249
*785 FILLER_25_261
*786 FILLER_25_27
*787 FILLER_25_273
*788 FILLER_25_279
*789 FILLER_25_281
*790 FILLER_25_293
*791 FILLER_25_3
*792 FILLER_25_305
*793 FILLER_25_317
*794 FILLER_25_329
*795 FILLER_25_335
*796 FILLER_25_337
*797 FILLER_25_349
*798 FILLER_25_361
*799 FILLER_25_373
*800 FILLER_25_385
*801 FILLER_25_39
*802 FILLER_25_391
*803 FILLER_25_393
*804 FILLER_25_405
*805 FILLER_25_51
*806 FILLER_25_55
*807 FILLER_25_57
*808 FILLER_25_69
*809 FILLER_25_81
*810 FILLER_25_93
*811 FILLER_26_109
*812 FILLER_26_121
*813 FILLER_26_133
*814 FILLER_26_139
*815 FILLER_26_141
*816 FILLER_26_15
*817 FILLER_26_153
*818 FILLER_26_165
*819 FILLER_26_177
*820 FILLER_26_189
*821 FILLER_26_195
*822 FILLER_26_197
*823 FILLER_26_209
*824 FILLER_26_221
*825 FILLER_26_233
*826 FILLER_26_245
*827 FILLER_26_251
*828 FILLER_26_253
*829 FILLER_26_265
*830 FILLER_26_27
*831 FILLER_26_277
*832 FILLER_26_289
*833 FILLER_26_29
*834 FILLER_26_3
*835 FILLER_26_301
*836 FILLER_26_307
*837 FILLER_26_309
*838 FILLER_26_321
*839 FILLER_26_333
*840 FILLER_26_345
*841 FILLER_26_357
*842 FILLER_26_363
*843 FILLER_26_365
*844 FILLER_26_377
*845 FILLER_26_389
*846 FILLER_26_401
*847 FILLER_26_41
*848 FILLER_26_53
*849 FILLER_26_65
*850 FILLER_26_77
*851 FILLER_26_83
*852 FILLER_26_85
*853 FILLER_26_97
*854 FILLER_27_105
*855 FILLER_27_111
*856 FILLER_27_113
*857 FILLER_27_125
*858 FILLER_27_137
*859 FILLER_27_149
*860 FILLER_27_15
*861 FILLER_27_161
*862 FILLER_27_167
*863 FILLER_27_169
*864 FILLER_27_181
*865 FILLER_27_193
*866 FILLER_27_205
*867 FILLER_27_217
*868 FILLER_27_223
*869 FILLER_27_225
*870 FILLER_27_237
*871 FILLER_27_249
*872 FILLER_27_261
*873 FILLER_27_27
*874 FILLER_27_273
*875 FILLER_27_279
*876 FILLER_27_281
*877 FILLER_27_293
*878 FILLER_27_3
*879 FILLER_27_305
*880 FILLER_27_317
*881 FILLER_27_329
*882 FILLER_27_335
*883 FILLER_27_337
*884 FILLER_27_349
*885 FILLER_27_361
*886 FILLER_27_385
*887 FILLER_27_39
*888 FILLER_27_391
*889 FILLER_27_393
*890 FILLER_27_405
*891 FILLER_27_51
*892 FILLER_27_55
*893 FILLER_27_57
*894 FILLER_27_69
*895 FILLER_27_81
*896 FILLER_27_93
*897 FILLER_28_109
*898 FILLER_28_121
*899 FILLER_28_133
*900 FILLER_28_139
*901 FILLER_28_141
*902 FILLER_28_15
*903 FILLER_28_153
*904 FILLER_28_165
*905 FILLER_28_177
*906 FILLER_28_189
*907 FILLER_28_195
*908 FILLER_28_197
*909 FILLER_28_209
*910 FILLER_28_221
*911 FILLER_28_233
*912 FILLER_28_245
*913 FILLER_28_251
*914 FILLER_28_253
*915 FILLER_28_265
*916 FILLER_28_27
*917 FILLER_28_277
*918 FILLER_28_289
*919 FILLER_28_29
*920 FILLER_28_3
*921 FILLER_28_301
*922 FILLER_28_307
*923 FILLER_28_309
*924 FILLER_28_321
*925 FILLER_28_333
*926 FILLER_28_345
*927 FILLER_28_357
*928 FILLER_28_363
*929 FILLER_28_365
*930 FILLER_28_377
*931 FILLER_28_389
*932 FILLER_28_401
*933 FILLER_28_41
*934 FILLER_28_53
*935 FILLER_28_65
*936 FILLER_28_77
*937 FILLER_28_83
*938 FILLER_28_85
*939 FILLER_28_97
*940 FILLER_29_105
*941 FILLER_29_111
*942 FILLER_29_113
*943 FILLER_29_125
*944 FILLER_29_137
*945 FILLER_29_149
*946 FILLER_29_15
*947 FILLER_29_161
*948 FILLER_29_167
*949 FILLER_29_169
*950 FILLER_29_181
*951 FILLER_29_193
*952 FILLER_29_205
*953 FILLER_29_217
*954 FILLER_29_223
*955 FILLER_29_225
*956 FILLER_29_237
*957 FILLER_29_249
*958 FILLER_29_261
*959 FILLER_29_27
*960 FILLER_29_273
*961 FILLER_29_279
*962 FILLER_29_281
*963 FILLER_29_293
*964 FILLER_29_3
*965 FILLER_29_305
*966 FILLER_29_317
*967 FILLER_29_329
*968 FILLER_29_335
*969 FILLER_29_337
*970 FILLER_29_349
*971 FILLER_29_361
*972 FILLER_29_385
*973 FILLER_29_39
*974 FILLER_29_391
*975 FILLER_29_393
*976 FILLER_29_405
*977 FILLER_29_51
*978 FILLER_29_55
*979 FILLER_29_57
*980 FILLER_29_69
*981 FILLER_29_81
*982 FILLER_29_93
*983 FILLER_2_109
*984 FILLER_2_121
*985 FILLER_2_133
*986 FILLER_2_139
*987 FILLER_2_141
*988 FILLER_2_15
*989 FILLER_2_153
*990 FILLER_2_165
*991 FILLER_2_177
*992 FILLER_2_189
*993 FILLER_2_195
*994 FILLER_2_197
*995 FILLER_2_209
*996 FILLER_2_221
*997 FILLER_2_233
*998 FILLER_2_245
*999 FILLER_2_251
*1000 FILLER_2_253
*1001 FILLER_2_265
*1002 FILLER_2_27
*1003 FILLER_2_277
*1004 FILLER_2_289
*1005 FILLER_2_29
*1006 FILLER_2_3
*1007 FILLER_2_301
*1008 FILLER_2_307
*1009 FILLER_2_309
*1010 FILLER_2_321
*1011 FILLER_2_333
*1012 FILLER_2_345
*1013 FILLER_2_357
*1014 FILLER_2_363
*1015 FILLER_2_365
*1016 FILLER_2_377
*1017 FILLER_2_389
*1018 FILLER_2_401
*1019 FILLER_2_41
*1020 FILLER_2_53
*1021 FILLER_2_65
*1022 FILLER_2_77
*1023 FILLER_2_83
*1024 FILLER_2_85
*1025 FILLER_2_97
*1026 FILLER_30_109
*1027 FILLER_30_121
*1028 FILLER_30_133
*1029 FILLER_30_139
*1030 FILLER_30_141
*1031 FILLER_30_15
*1032 FILLER_30_153
*1033 FILLER_30_165
*1034 FILLER_30_177
*1035 FILLER_30_189
*1036 FILLER_30_195
*1037 FILLER_30_197
*1038 FILLER_30_209
*1039 FILLER_30_221
*1040 FILLER_30_233
*1041 FILLER_30_245
*1042 FILLER_30_251
*1043 FILLER_30_253
*1044 FILLER_30_265
*1045 FILLER_30_27
*1046 FILLER_30_277
*1047 FILLER_30_289
*1048 FILLER_30_29
*1049 FILLER_30_3
*1050 FILLER_30_301
*1051 FILLER_30_307
*1052 FILLER_30_309
*1053 FILLER_30_321
*1054 FILLER_30_333
*1055 FILLER_30_345
*1056 FILLER_30_357
*1057 FILLER_30_363
*1058 FILLER_30_393
*1059 FILLER_30_401
*1060 FILLER_30_41
*1061 FILLER_30_53
*1062 FILLER_30_65
*1063 FILLER_30_77
*1064 FILLER_30_83
*1065 FILLER_30_85
*1066 FILLER_30_97
*1067 FILLER_31_105
*1068 FILLER_31_111
*1069 FILLER_31_113
*1070 FILLER_31_125
*1071 FILLER_31_137
*1072 FILLER_31_149
*1073 FILLER_31_15
*1074 FILLER_31_161
*1075 FILLER_31_167
*1076 FILLER_31_169
*1077 FILLER_31_181
*1078 FILLER_31_193
*1079 FILLER_31_205
*1080 FILLER_31_217
*1081 FILLER_31_223
*1082 FILLER_31_225
*1083 FILLER_31_237
*1084 FILLER_31_249
*1085 FILLER_31_261
*1086 FILLER_31_27
*1087 FILLER_31_273
*1088 FILLER_31_279
*1089 FILLER_31_281
*1090 FILLER_31_293
*1091 FILLER_31_3
*1092 FILLER_31_305
*1093 FILLER_31_317
*1094 FILLER_31_329
*1095 FILLER_31_335
*1096 FILLER_31_337
*1097 FILLER_31_349
*1098 FILLER_31_385
*1099 FILLER_31_39
*1100 FILLER_31_391
*1101 FILLER_31_393
*1102 FILLER_31_401
*1103 FILLER_31_51
*1104 FILLER_31_55
*1105 FILLER_31_57
*1106 FILLER_31_69
*1107 FILLER_31_81
*1108 FILLER_31_93
*1109 FILLER_32_109
*1110 FILLER_32_121
*1111 FILLER_32_133
*1112 FILLER_32_139
*1113 FILLER_32_141
*1114 FILLER_32_15
*1115 FILLER_32_153
*1116 FILLER_32_165
*1117 FILLER_32_177
*1118 FILLER_32_189
*1119 FILLER_32_195
*1120 FILLER_32_197
*1121 FILLER_32_209
*1122 FILLER_32_221
*1123 FILLER_32_233
*1124 FILLER_32_245
*1125 FILLER_32_251
*1126 FILLER_32_253
*1127 FILLER_32_265
*1128 FILLER_32_27
*1129 FILLER_32_277
*1130 FILLER_32_289
*1131 FILLER_32_29
*1132 FILLER_32_3
*1133 FILLER_32_301
*1134 FILLER_32_307
*1135 FILLER_32_309
*1136 FILLER_32_321
*1137 FILLER_32_333
*1138 FILLER_32_345
*1139 FILLER_32_393
*1140 FILLER_32_401
*1141 FILLER_32_41
*1142 FILLER_32_53
*1143 FILLER_32_65
*1144 FILLER_32_77
*1145 FILLER_32_83
*1146 FILLER_32_85
*1147 FILLER_32_97
*1148 FILLER_33_105
*1149 FILLER_33_111
*1150 FILLER_33_113
*1151 FILLER_33_125
*1152 FILLER_33_137
*1153 FILLER_33_149
*1154 FILLER_33_15
*1155 FILLER_33_161
*1156 FILLER_33_167
*1157 FILLER_33_169
*1158 FILLER_33_181
*1159 FILLER_33_193
*1160 FILLER_33_205
*1161 FILLER_33_217
*1162 FILLER_33_223
*1163 FILLER_33_225
*1164 FILLER_33_237
*1165 FILLER_33_249
*1166 FILLER_33_261
*1167 FILLER_33_27
*1168 FILLER_33_273
*1169 FILLER_33_279
*1170 FILLER_33_281
*1171 FILLER_33_293
*1172 FILLER_33_3
*1173 FILLER_33_305
*1174 FILLER_33_317
*1175 FILLER_33_329
*1176 FILLER_33_335
*1177 FILLER_33_337
*1178 FILLER_33_349
*1179 FILLER_33_361
*1180 FILLER_33_39
*1181 FILLER_33_391
*1182 FILLER_33_393
*1183 FILLER_33_405
*1184 FILLER_33_51
*1185 FILLER_33_55
*1186 FILLER_33_57
*1187 FILLER_33_69
*1188 FILLER_33_81
*1189 FILLER_33_93
*1190 FILLER_34_109
*1191 FILLER_34_121
*1192 FILLER_34_133
*1193 FILLER_34_139
*1194 FILLER_34_141
*1195 FILLER_34_15
*1196 FILLER_34_153
*1197 FILLER_34_165
*1198 FILLER_34_177
*1199 FILLER_34_189
*1200 FILLER_34_195
*1201 FILLER_34_197
*1202 FILLER_34_209
*1203 FILLER_34_221
*1204 FILLER_34_233
*1205 FILLER_34_245
*1206 FILLER_34_251
*1207 FILLER_34_253
*1208 FILLER_34_265
*1209 FILLER_34_27
*1210 FILLER_34_277
*1211 FILLER_34_289
*1212 FILLER_34_29
*1213 FILLER_34_3
*1214 FILLER_34_301
*1215 FILLER_34_307
*1216 FILLER_34_309
*1217 FILLER_34_321
*1218 FILLER_34_333
*1219 FILLER_34_345
*1220 FILLER_34_357
*1221 FILLER_34_363
*1222 FILLER_34_365
*1223 FILLER_34_371
*1224 FILLER_34_388
*1225 FILLER_34_400
*1226 FILLER_34_41
*1227 FILLER_34_53
*1228 FILLER_34_65
*1229 FILLER_34_77
*1230 FILLER_34_83
*1231 FILLER_34_85
*1232 FILLER_34_97
*1233 FILLER_35_105
*1234 FILLER_35_111
*1235 FILLER_35_113
*1236 FILLER_35_125
*1237 FILLER_35_137
*1238 FILLER_35_149
*1239 FILLER_35_15
*1240 FILLER_35_161
*1241 FILLER_35_167
*1242 FILLER_35_169
*1243 FILLER_35_181
*1244 FILLER_35_193
*1245 FILLER_35_205
*1246 FILLER_35_217
*1247 FILLER_35_223
*1248 FILLER_35_225
*1249 FILLER_35_237
*1250 FILLER_35_249
*1251 FILLER_35_261
*1252 FILLER_35_27
*1253 FILLER_35_273
*1254 FILLER_35_279
*1255 FILLER_35_281
*1256 FILLER_35_293
*1257 FILLER_35_3
*1258 FILLER_35_305
*1259 FILLER_35_317
*1260 FILLER_35_329
*1261 FILLER_35_335
*1262 FILLER_35_337
*1263 FILLER_35_349
*1264 FILLER_35_361
*1265 FILLER_35_373
*1266 FILLER_35_385
*1267 FILLER_35_39
*1268 FILLER_35_391
*1269 FILLER_35_393
*1270 FILLER_35_401
*1271 FILLER_35_51
*1272 FILLER_35_55
*1273 FILLER_35_57
*1274 FILLER_35_69
*1275 FILLER_35_81
*1276 FILLER_35_93
*1277 FILLER_36_109
*1278 FILLER_36_121
*1279 FILLER_36_133
*1280 FILLER_36_139
*1281 FILLER_36_141
*1282 FILLER_36_15
*1283 FILLER_36_153
*1284 FILLER_36_165
*1285 FILLER_36_177
*1286 FILLER_36_189
*1287 FILLER_36_195
*1288 FILLER_36_197
*1289 FILLER_36_209
*1290 FILLER_36_221
*1291 FILLER_36_233
*1292 FILLER_36_245
*1293 FILLER_36_251
*1294 FILLER_36_253
*1295 FILLER_36_265
*1296 FILLER_36_27
*1297 FILLER_36_277
*1298 FILLER_36_289
*1299 FILLER_36_29
*1300 FILLER_36_3
*1301 FILLER_36_301
*1302 FILLER_36_307
*1303 FILLER_36_309
*1304 FILLER_36_321
*1305 FILLER_36_333
*1306 FILLER_36_345
*1307 FILLER_36_357
*1308 FILLER_36_363
*1309 FILLER_36_371
*1310 FILLER_36_383
*1311 FILLER_36_395
*1312 FILLER_36_41
*1313 FILLER_36_53
*1314 FILLER_36_65
*1315 FILLER_36_77
*1316 FILLER_36_83
*1317 FILLER_36_85
*1318 FILLER_36_97
*1319 FILLER_37_105
*1320 FILLER_37_111
*1321 FILLER_37_113
*1322 FILLER_37_125
*1323 FILLER_37_137
*1324 FILLER_37_149
*1325 FILLER_37_15
*1326 FILLER_37_161
*1327 FILLER_37_167
*1328 FILLER_37_169
*1329 FILLER_37_181
*1330 FILLER_37_193
*1331 FILLER_37_205
*1332 FILLER_37_217
*1333 FILLER_37_223
*1334 FILLER_37_225
*1335 FILLER_37_237
*1336 FILLER_37_249
*1337 FILLER_37_261
*1338 FILLER_37_27
*1339 FILLER_37_273
*1340 FILLER_37_279
*1341 FILLER_37_281
*1342 FILLER_37_293
*1343 FILLER_37_3
*1344 FILLER_37_305
*1345 FILLER_37_317
*1346 FILLER_37_329
*1347 FILLER_37_335
*1348 FILLER_37_337
*1349 FILLER_37_349
*1350 FILLER_37_361
*1351 FILLER_37_385
*1352 FILLER_37_39
*1353 FILLER_37_391
*1354 FILLER_37_393
*1355 FILLER_37_405
*1356 FILLER_37_51
*1357 FILLER_37_55
*1358 FILLER_37_57
*1359 FILLER_37_69
*1360 FILLER_37_81
*1361 FILLER_37_93
*1362 FILLER_38_109
*1363 FILLER_38_121
*1364 FILLER_38_133
*1365 FILLER_38_139
*1366 FILLER_38_141
*1367 FILLER_38_15
*1368 FILLER_38_153
*1369 FILLER_38_165
*1370 FILLER_38_177
*1371 FILLER_38_189
*1372 FILLER_38_195
*1373 FILLER_38_197
*1374 FILLER_38_209
*1375 FILLER_38_221
*1376 FILLER_38_233
*1377 FILLER_38_245
*1378 FILLER_38_251
*1379 FILLER_38_253
*1380 FILLER_38_265
*1381 FILLER_38_27
*1382 FILLER_38_277
*1383 FILLER_38_289
*1384 FILLER_38_29
*1385 FILLER_38_3
*1386 FILLER_38_301
*1387 FILLER_38_307
*1388 FILLER_38_309
*1389 FILLER_38_321
*1390 FILLER_38_333
*1391 FILLER_38_345
*1392 FILLER_38_357
*1393 FILLER_38_363
*1394 FILLER_38_365
*1395 FILLER_38_377
*1396 FILLER_38_389
*1397 FILLER_38_401
*1398 FILLER_38_41
*1399 FILLER_38_53
*1400 FILLER_38_65
*1401 FILLER_38_77
*1402 FILLER_38_83
*1403 FILLER_38_85
*1404 FILLER_38_97
*1405 FILLER_39_105
*1406 FILLER_39_111
*1407 FILLER_39_113
*1408 FILLER_39_125
*1409 FILLER_39_137
*1410 FILLER_39_149
*1411 FILLER_39_15
*1412 FILLER_39_161
*1413 FILLER_39_167
*1414 FILLER_39_169
*1415 FILLER_39_181
*1416 FILLER_39_193
*1417 FILLER_39_205
*1418 FILLER_39_217
*1419 FILLER_39_223
*1420 FILLER_39_225
*1421 FILLER_39_237
*1422 FILLER_39_249
*1423 FILLER_39_261
*1424 FILLER_39_27
*1425 FILLER_39_273
*1426 FILLER_39_279
*1427 FILLER_39_281
*1428 FILLER_39_293
*1429 FILLER_39_3
*1430 FILLER_39_305
*1431 FILLER_39_317
*1432 FILLER_39_329
*1433 FILLER_39_335
*1434 FILLER_39_337
*1435 FILLER_39_349
*1436 FILLER_39_361
*1437 FILLER_39_373
*1438 FILLER_39_385
*1439 FILLER_39_39
*1440 FILLER_39_391
*1441 FILLER_39_393
*1442 FILLER_39_405
*1443 FILLER_39_51
*1444 FILLER_39_55
*1445 FILLER_39_57
*1446 FILLER_39_69
*1447 FILLER_39_81
*1448 FILLER_39_93
*1449 FILLER_3_105
*1450 FILLER_3_111
*1451 FILLER_3_113
*1452 FILLER_3_125
*1453 FILLER_3_137
*1454 FILLER_3_149
*1455 FILLER_3_15
*1456 FILLER_3_161
*1457 FILLER_3_167
*1458 FILLER_3_169
*1459 FILLER_3_181
*1460 FILLER_3_193
*1461 FILLER_3_205
*1462 FILLER_3_217
*1463 FILLER_3_223
*1464 FILLER_3_225
*1465 FILLER_3_237
*1466 FILLER_3_249
*1467 FILLER_3_261
*1468 FILLER_3_27
*1469 FILLER_3_273
*1470 FILLER_3_279
*1471 FILLER_3_281
*1472 FILLER_3_293
*1473 FILLER_3_3
*1474 FILLER_3_305
*1475 FILLER_3_317
*1476 FILLER_3_329
*1477 FILLER_3_335
*1478 FILLER_3_337
*1479 FILLER_3_349
*1480 FILLER_3_361
*1481 FILLER_3_373
*1482 FILLER_3_385
*1483 FILLER_3_39
*1484 FILLER_3_391
*1485 FILLER_3_393
*1486 FILLER_3_405
*1487 FILLER_3_51
*1488 FILLER_3_55
*1489 FILLER_3_57
*1490 FILLER_3_69
*1491 FILLER_3_81
*1492 FILLER_3_93
*1493 FILLER_40_109
*1494 FILLER_40_121
*1495 FILLER_40_133
*1496 FILLER_40_139
*1497 FILLER_40_141
*1498 FILLER_40_15
*1499 FILLER_40_153
*1500 FILLER_40_165
*1501 FILLER_40_177
*1502 FILLER_40_189
*1503 FILLER_40_195
*1504 FILLER_40_197
*1505 FILLER_40_209
*1506 FILLER_40_221
*1507 FILLER_40_233
*1508 FILLER_40_245
*1509 FILLER_40_251
*1510 FILLER_40_253
*1511 FILLER_40_265
*1512 FILLER_40_27
*1513 FILLER_40_277
*1514 FILLER_40_289
*1515 FILLER_40_29
*1516 FILLER_40_3
*1517 FILLER_40_301
*1518 FILLER_40_307
*1519 FILLER_40_309
*1520 FILLER_40_321
*1521 FILLER_40_333
*1522 FILLER_40_345
*1523 FILLER_40_357
*1524 FILLER_40_363
*1525 FILLER_40_365
*1526 FILLER_40_377
*1527 FILLER_40_389
*1528 FILLER_40_401
*1529 FILLER_40_41
*1530 FILLER_40_53
*1531 FILLER_40_65
*1532 FILLER_40_77
*1533 FILLER_40_83
*1534 FILLER_40_85
*1535 FILLER_40_97
*1536 FILLER_41_105
*1537 FILLER_41_111
*1538 FILLER_41_113
*1539 FILLER_41_125
*1540 FILLER_41_137
*1541 FILLER_41_149
*1542 FILLER_41_15
*1543 FILLER_41_161
*1544 FILLER_41_167
*1545 FILLER_41_169
*1546 FILLER_41_181
*1547 FILLER_41_193
*1548 FILLER_41_205
*1549 FILLER_41_217
*1550 FILLER_41_223
*1551 FILLER_41_225
*1552 FILLER_41_237
*1553 FILLER_41_249
*1554 FILLER_41_261
*1555 FILLER_41_27
*1556 FILLER_41_273
*1557 FILLER_41_279
*1558 FILLER_41_281
*1559 FILLER_41_293
*1560 FILLER_41_3
*1561 FILLER_41_305
*1562 FILLER_41_317
*1563 FILLER_41_329
*1564 FILLER_41_335
*1565 FILLER_41_337
*1566 FILLER_41_349
*1567 FILLER_41_361
*1568 FILLER_41_373
*1569 FILLER_41_385
*1570 FILLER_41_39
*1571 FILLER_41_391
*1572 FILLER_41_393
*1573 FILLER_41_405
*1574 FILLER_41_51
*1575 FILLER_41_55
*1576 FILLER_41_57
*1577 FILLER_41_69
*1578 FILLER_41_81
*1579 FILLER_41_93
*1580 FILLER_42_109
*1581 FILLER_42_121
*1582 FILLER_42_133
*1583 FILLER_42_139
*1584 FILLER_42_141
*1585 FILLER_42_15
*1586 FILLER_42_153
*1587 FILLER_42_165
*1588 FILLER_42_177
*1589 FILLER_42_189
*1590 FILLER_42_195
*1591 FILLER_42_197
*1592 FILLER_42_209
*1593 FILLER_42_221
*1594 FILLER_42_233
*1595 FILLER_42_245
*1596 FILLER_42_251
*1597 FILLER_42_253
*1598 FILLER_42_265
*1599 FILLER_42_27
*1600 FILLER_42_277
*1601 FILLER_42_289
*1602 FILLER_42_29
*1603 FILLER_42_3
*1604 FILLER_42_301
*1605 FILLER_42_307
*1606 FILLER_42_309
*1607 FILLER_42_321
*1608 FILLER_42_333
*1609 FILLER_42_345
*1610 FILLER_42_357
*1611 FILLER_42_363
*1612 FILLER_42_365
*1613 FILLER_42_377
*1614 FILLER_42_389
*1615 FILLER_42_401
*1616 FILLER_42_41
*1617 FILLER_42_53
*1618 FILLER_42_65
*1619 FILLER_42_77
*1620 FILLER_42_83
*1621 FILLER_42_85
*1622 FILLER_42_97
*1623 FILLER_43_105
*1624 FILLER_43_111
*1625 FILLER_43_113
*1626 FILLER_43_125
*1627 FILLER_43_137
*1628 FILLER_43_149
*1629 FILLER_43_15
*1630 FILLER_43_161
*1631 FILLER_43_167
*1632 FILLER_43_169
*1633 FILLER_43_181
*1634 FILLER_43_193
*1635 FILLER_43_205
*1636 FILLER_43_217
*1637 FILLER_43_223
*1638 FILLER_43_225
*1639 FILLER_43_237
*1640 FILLER_43_249
*1641 FILLER_43_261
*1642 FILLER_43_27
*1643 FILLER_43_273
*1644 FILLER_43_279
*1645 FILLER_43_281
*1646 FILLER_43_293
*1647 FILLER_43_3
*1648 FILLER_43_305
*1649 FILLER_43_317
*1650 FILLER_43_329
*1651 FILLER_43_335
*1652 FILLER_43_337
*1653 FILLER_43_349
*1654 FILLER_43_361
*1655 FILLER_43_373
*1656 FILLER_43_385
*1657 FILLER_43_39
*1658 FILLER_43_391
*1659 FILLER_43_393
*1660 FILLER_43_405
*1661 FILLER_43_51
*1662 FILLER_43_55
*1663 FILLER_43_57
*1664 FILLER_43_69
*1665 FILLER_43_81
*1666 FILLER_43_93
*1667 FILLER_44_109
*1668 FILLER_44_121
*1669 FILLER_44_133
*1670 FILLER_44_139
*1671 FILLER_44_141
*1672 FILLER_44_15
*1673 FILLER_44_153
*1674 FILLER_44_165
*1675 FILLER_44_177
*1676 FILLER_44_189
*1677 FILLER_44_195
*1678 FILLER_44_197
*1679 FILLER_44_209
*1680 FILLER_44_221
*1681 FILLER_44_233
*1682 FILLER_44_245
*1683 FILLER_44_251
*1684 FILLER_44_253
*1685 FILLER_44_265
*1686 FILLER_44_27
*1687 FILLER_44_277
*1688 FILLER_44_289
*1689 FILLER_44_29
*1690 FILLER_44_3
*1691 FILLER_44_301
*1692 FILLER_44_307
*1693 FILLER_44_309
*1694 FILLER_44_321
*1695 FILLER_44_333
*1696 FILLER_44_345
*1697 FILLER_44_357
*1698 FILLER_44_363
*1699 FILLER_44_365
*1700 FILLER_44_377
*1701 FILLER_44_389
*1702 FILLER_44_401
*1703 FILLER_44_41
*1704 FILLER_44_53
*1705 FILLER_44_65
*1706 FILLER_44_77
*1707 FILLER_44_83
*1708 FILLER_44_85
*1709 FILLER_44_97
*1710 FILLER_45_105
*1711 FILLER_45_111
*1712 FILLER_45_113
*1713 FILLER_45_125
*1714 FILLER_45_137
*1715 FILLER_45_149
*1716 FILLER_45_15
*1717 FILLER_45_161
*1718 FILLER_45_167
*1719 FILLER_45_169
*1720 FILLER_45_181
*1721 FILLER_45_193
*1722 FILLER_45_205
*1723 FILLER_45_217
*1724 FILLER_45_223
*1725 FILLER_45_225
*1726 FILLER_45_237
*1727 FILLER_45_249
*1728 FILLER_45_261
*1729 FILLER_45_27
*1730 FILLER_45_273
*1731 FILLER_45_279
*1732 FILLER_45_281
*1733 FILLER_45_293
*1734 FILLER_45_3
*1735 FILLER_45_305
*1736 FILLER_45_317
*1737 FILLER_45_329
*1738 FILLER_45_335
*1739 FILLER_45_337
*1740 FILLER_45_349
*1741 FILLER_45_361
*1742 FILLER_45_373
*1743 FILLER_45_385
*1744 FILLER_45_39
*1745 FILLER_45_391
*1746 FILLER_45_393
*1747 FILLER_45_405
*1748 FILLER_45_51
*1749 FILLER_45_55
*1750 FILLER_45_57
*1751 FILLER_45_69
*1752 FILLER_45_81
*1753 FILLER_45_93
*1754 FILLER_46_109
*1755 FILLER_46_121
*1756 FILLER_46_133
*1757 FILLER_46_139
*1758 FILLER_46_141
*1759 FILLER_46_15
*1760 FILLER_46_153
*1761 FILLER_46_165
*1762 FILLER_46_177
*1763 FILLER_46_189
*1764 FILLER_46_195
*1765 FILLER_46_197
*1766 FILLER_46_209
*1767 FILLER_46_221
*1768 FILLER_46_233
*1769 FILLER_46_245
*1770 FILLER_46_251
*1771 FILLER_46_253
*1772 FILLER_46_265
*1773 FILLER_46_27
*1774 FILLER_46_277
*1775 FILLER_46_289
*1776 FILLER_46_29
*1777 FILLER_46_3
*1778 FILLER_46_301
*1779 FILLER_46_307
*1780 FILLER_46_309
*1781 FILLER_46_321
*1782 FILLER_46_333
*1783 FILLER_46_345
*1784 FILLER_46_357
*1785 FILLER_46_363
*1786 FILLER_46_365
*1787 FILLER_46_377
*1788 FILLER_46_389
*1789 FILLER_46_401
*1790 FILLER_46_41
*1791 FILLER_46_53
*1792 FILLER_46_65
*1793 FILLER_46_77
*1794 FILLER_46_83
*1795 FILLER_46_85
*1796 FILLER_46_97
*1797 FILLER_47_105
*1798 FILLER_47_111
*1799 FILLER_47_113
*1800 FILLER_47_125
*1801 FILLER_47_137
*1802 FILLER_47_149
*1803 FILLER_47_15
*1804 FILLER_47_161
*1805 FILLER_47_167
*1806 FILLER_47_169
*1807 FILLER_47_181
*1808 FILLER_47_193
*1809 FILLER_47_205
*1810 FILLER_47_217
*1811 FILLER_47_223
*1812 FILLER_47_225
*1813 FILLER_47_237
*1814 FILLER_47_249
*1815 FILLER_47_261
*1816 FILLER_47_27
*1817 FILLER_47_273
*1818 FILLER_47_279
*1819 FILLER_47_281
*1820 FILLER_47_293
*1821 FILLER_47_3
*1822 FILLER_47_305
*1823 FILLER_47_317
*1824 FILLER_47_329
*1825 FILLER_47_335
*1826 FILLER_47_337
*1827 FILLER_47_349
*1828 FILLER_47_361
*1829 FILLER_47_373
*1830 FILLER_47_385
*1831 FILLER_47_39
*1832 FILLER_47_391
*1833 FILLER_47_393
*1834 FILLER_47_405
*1835 FILLER_47_51
*1836 FILLER_47_55
*1837 FILLER_47_57
*1838 FILLER_47_69
*1839 FILLER_47_81
*1840 FILLER_47_93
*1841 FILLER_48_109
*1842 FILLER_48_121
*1843 FILLER_48_133
*1844 FILLER_48_139
*1845 FILLER_48_141
*1846 FILLER_48_15
*1847 FILLER_48_153
*1848 FILLER_48_165
*1849 FILLER_48_177
*1850 FILLER_48_189
*1851 FILLER_48_195
*1852 FILLER_48_197
*1853 FILLER_48_209
*1854 FILLER_48_221
*1855 FILLER_48_233
*1856 FILLER_48_245
*1857 FILLER_48_251
*1858 FILLER_48_253
*1859 FILLER_48_265
*1860 FILLER_48_27
*1861 FILLER_48_277
*1862 FILLER_48_289
*1863 FILLER_48_29
*1864 FILLER_48_3
*1865 FILLER_48_301
*1866 FILLER_48_307
*1867 FILLER_48_309
*1868 FILLER_48_321
*1869 FILLER_48_333
*1870 FILLER_48_345
*1871 FILLER_48_357
*1872 FILLER_48_363
*1873 FILLER_48_365
*1874 FILLER_48_377
*1875 FILLER_48_389
*1876 FILLER_48_401
*1877 FILLER_48_41
*1878 FILLER_48_53
*1879 FILLER_48_65
*1880 FILLER_48_77
*1881 FILLER_48_83
*1882 FILLER_48_85
*1883 FILLER_48_97
*1884 FILLER_49_105
*1885 FILLER_49_111
*1886 FILLER_49_113
*1887 FILLER_49_125
*1888 FILLER_49_137
*1889 FILLER_49_149
*1890 FILLER_49_15
*1891 FILLER_49_161
*1892 FILLER_49_167
*1893 FILLER_49_169
*1894 FILLER_49_181
*1895 FILLER_49_193
*1896 FILLER_49_205
*1897 FILLER_49_217
*1898 FILLER_49_223
*1899 FILLER_49_225
*1900 FILLER_49_237
*1901 FILLER_49_249
*1902 FILLER_49_261
*1903 FILLER_49_27
*1904 FILLER_49_273
*1905 FILLER_49_279
*1906 FILLER_49_281
*1907 FILLER_49_293
*1908 FILLER_49_3
*1909 FILLER_49_305
*1910 FILLER_49_317
*1911 FILLER_49_329
*1912 FILLER_49_335
*1913 FILLER_49_337
*1914 FILLER_49_349
*1915 FILLER_49_361
*1916 FILLER_49_373
*1917 FILLER_49_385
*1918 FILLER_49_39
*1919 FILLER_49_391
*1920 FILLER_49_393
*1921 FILLER_49_405
*1922 FILLER_49_51
*1923 FILLER_49_55
*1924 FILLER_49_57
*1925 FILLER_49_69
*1926 FILLER_49_81
*1927 FILLER_49_93
*1928 FILLER_4_109
*1929 FILLER_4_121
*1930 FILLER_4_133
*1931 FILLER_4_139
*1932 FILLER_4_141
*1933 FILLER_4_15
*1934 FILLER_4_153
*1935 FILLER_4_165
*1936 FILLER_4_177
*1937 FILLER_4_189
*1938 FILLER_4_195
*1939 FILLER_4_197
*1940 FILLER_4_209
*1941 FILLER_4_221
*1942 FILLER_4_233
*1943 FILLER_4_245
*1944 FILLER_4_251
*1945 FILLER_4_253
*1946 FILLER_4_265
*1947 FILLER_4_27
*1948 FILLER_4_277
*1949 FILLER_4_289
*1950 FILLER_4_29
*1951 FILLER_4_3
*1952 FILLER_4_301
*1953 FILLER_4_307
*1954 FILLER_4_309
*1955 FILLER_4_321
*1956 FILLER_4_333
*1957 FILLER_4_345
*1958 FILLER_4_357
*1959 FILLER_4_363
*1960 FILLER_4_365
*1961 FILLER_4_377
*1962 FILLER_4_389
*1963 FILLER_4_401
*1964 FILLER_4_41
*1965 FILLER_4_53
*1966 FILLER_4_65
*1967 FILLER_4_77
*1968 FILLER_4_83
*1969 FILLER_4_85
*1970 FILLER_4_97
*1971 FILLER_50_109
*1972 FILLER_50_121
*1973 FILLER_50_133
*1974 FILLER_50_139
*1975 FILLER_50_141
*1976 FILLER_50_15
*1977 FILLER_50_153
*1978 FILLER_50_165
*1979 FILLER_50_177
*1980 FILLER_50_189
*1981 FILLER_50_195
*1982 FILLER_50_197
*1983 FILLER_50_209
*1984 FILLER_50_221
*1985 FILLER_50_233
*1986 FILLER_50_245
*1987 FILLER_50_251
*1988 FILLER_50_253
*1989 FILLER_50_265
*1990 FILLER_50_27
*1991 FILLER_50_277
*1992 FILLER_50_289
*1993 FILLER_50_29
*1994 FILLER_50_3
*1995 FILLER_50_301
*1996 FILLER_50_307
*1997 FILLER_50_309
*1998 FILLER_50_321
*1999 FILLER_50_333
*2000 FILLER_50_345
*2001 FILLER_50_357
*2002 FILLER_50_363
*2003 FILLER_50_365
*2004 FILLER_50_377
*2005 FILLER_50_389
*2006 FILLER_50_401
*2007 FILLER_50_41
*2008 FILLER_50_53
*2009 FILLER_50_65
*2010 FILLER_50_77
*2011 FILLER_50_83
*2012 FILLER_50_85
*2013 FILLER_50_97
*2014 FILLER_51_105
*2015 FILLER_51_111
*2016 FILLER_51_113
*2017 FILLER_51_125
*2018 FILLER_51_137
*2019 FILLER_51_149
*2020 FILLER_51_15
*2021 FILLER_51_161
*2022 FILLER_51_167
*2023 FILLER_51_169
*2024 FILLER_51_181
*2025 FILLER_51_193
*2026 FILLER_51_205
*2027 FILLER_51_217
*2028 FILLER_51_223
*2029 FILLER_51_225
*2030 FILLER_51_237
*2031 FILLER_51_249
*2032 FILLER_51_261
*2033 FILLER_51_27
*2034 FILLER_51_273
*2035 FILLER_51_279
*2036 FILLER_51_281
*2037 FILLER_51_293
*2038 FILLER_51_3
*2039 FILLER_51_305
*2040 FILLER_51_317
*2041 FILLER_51_329
*2042 FILLER_51_335
*2043 FILLER_51_337
*2044 FILLER_51_349
*2045 FILLER_51_361
*2046 FILLER_51_373
*2047 FILLER_51_385
*2048 FILLER_51_39
*2049 FILLER_51_391
*2050 FILLER_51_393
*2051 FILLER_51_405
*2052 FILLER_51_51
*2053 FILLER_51_55
*2054 FILLER_51_57
*2055 FILLER_51_69
*2056 FILLER_51_81
*2057 FILLER_51_93
*2058 FILLER_52_109
*2059 FILLER_52_121
*2060 FILLER_52_133
*2061 FILLER_52_139
*2062 FILLER_52_141
*2063 FILLER_52_15
*2064 FILLER_52_153
*2065 FILLER_52_165
*2066 FILLER_52_177
*2067 FILLER_52_189
*2068 FILLER_52_195
*2069 FILLER_52_197
*2070 FILLER_52_209
*2071 FILLER_52_221
*2072 FILLER_52_233
*2073 FILLER_52_245
*2074 FILLER_52_251
*2075 FILLER_52_253
*2076 FILLER_52_265
*2077 FILLER_52_27
*2078 FILLER_52_277
*2079 FILLER_52_289
*2080 FILLER_52_29
*2081 FILLER_52_3
*2082 FILLER_52_301
*2083 FILLER_52_307
*2084 FILLER_52_309
*2085 FILLER_52_321
*2086 FILLER_52_333
*2087 FILLER_52_345
*2088 FILLER_52_357
*2089 FILLER_52_363
*2090 FILLER_52_365
*2091 FILLER_52_377
*2092 FILLER_52_389
*2093 FILLER_52_401
*2094 FILLER_52_41
*2095 FILLER_52_53
*2096 FILLER_52_65
*2097 FILLER_52_77
*2098 FILLER_52_83
*2099 FILLER_52_85
*2100 FILLER_52_97
*2101 FILLER_53_105
*2102 FILLER_53_111
*2103 FILLER_53_113
*2104 FILLER_53_125
*2105 FILLER_53_137
*2106 FILLER_53_149
*2107 FILLER_53_15
*2108 FILLER_53_161
*2109 FILLER_53_167
*2110 FILLER_53_169
*2111 FILLER_53_181
*2112 FILLER_53_193
*2113 FILLER_53_205
*2114 FILLER_53_217
*2115 FILLER_53_223
*2116 FILLER_53_225
*2117 FILLER_53_237
*2118 FILLER_53_249
*2119 FILLER_53_261
*2120 FILLER_53_27
*2121 FILLER_53_273
*2122 FILLER_53_279
*2123 FILLER_53_281
*2124 FILLER_53_293
*2125 FILLER_53_3
*2126 FILLER_53_305
*2127 FILLER_53_317
*2128 FILLER_53_329
*2129 FILLER_53_335
*2130 FILLER_53_337
*2131 FILLER_53_349
*2132 FILLER_53_361
*2133 FILLER_53_373
*2134 FILLER_53_385
*2135 FILLER_53_39
*2136 FILLER_53_391
*2137 FILLER_53_393
*2138 FILLER_53_405
*2139 FILLER_53_51
*2140 FILLER_53_55
*2141 FILLER_53_57
*2142 FILLER_53_69
*2143 FILLER_53_81
*2144 FILLER_53_93
*2145 FILLER_54_109
*2146 FILLER_54_121
*2147 FILLER_54_133
*2148 FILLER_54_139
*2149 FILLER_54_141
*2150 FILLER_54_15
*2151 FILLER_54_153
*2152 FILLER_54_165
*2153 FILLER_54_177
*2154 FILLER_54_189
*2155 FILLER_54_195
*2156 FILLER_54_197
*2157 FILLER_54_209
*2158 FILLER_54_221
*2159 FILLER_54_233
*2160 FILLER_54_245
*2161 FILLER_54_251
*2162 FILLER_54_253
*2163 FILLER_54_265
*2164 FILLER_54_27
*2165 FILLER_54_277
*2166 FILLER_54_289
*2167 FILLER_54_29
*2168 FILLER_54_3
*2169 FILLER_54_301
*2170 FILLER_54_307
*2171 FILLER_54_309
*2172 FILLER_54_321
*2173 FILLER_54_333
*2174 FILLER_54_345
*2175 FILLER_54_357
*2176 FILLER_54_363
*2177 FILLER_54_365
*2178 FILLER_54_377
*2179 FILLER_54_389
*2180 FILLER_54_401
*2181 FILLER_54_41
*2182 FILLER_54_53
*2183 FILLER_54_65
*2184 FILLER_54_77
*2185 FILLER_54_83
*2186 FILLER_54_85
*2187 FILLER_54_97
*2188 FILLER_55_105
*2189 FILLER_55_111
*2190 FILLER_55_113
*2191 FILLER_55_125
*2192 FILLER_55_137
*2193 FILLER_55_149
*2194 FILLER_55_15
*2195 FILLER_55_161
*2196 FILLER_55_167
*2197 FILLER_55_169
*2198 FILLER_55_181
*2199 FILLER_55_193
*2200 FILLER_55_205
*2201 FILLER_55_217
*2202 FILLER_55_223
*2203 FILLER_55_225
*2204 FILLER_55_237
*2205 FILLER_55_249
*2206 FILLER_55_261
*2207 FILLER_55_27
*2208 FILLER_55_273
*2209 FILLER_55_279
*2210 FILLER_55_281
*2211 FILLER_55_293
*2212 FILLER_55_3
*2213 FILLER_55_305
*2214 FILLER_55_317
*2215 FILLER_55_329
*2216 FILLER_55_335
*2217 FILLER_55_337
*2218 FILLER_55_349
*2219 FILLER_55_361
*2220 FILLER_55_373
*2221 FILLER_55_385
*2222 FILLER_55_39
*2223 FILLER_55_391
*2224 FILLER_55_393
*2225 FILLER_55_405
*2226 FILLER_55_51
*2227 FILLER_55_55
*2228 FILLER_55_57
*2229 FILLER_55_69
*2230 FILLER_55_81
*2231 FILLER_55_93
*2232 FILLER_56_109
*2233 FILLER_56_121
*2234 FILLER_56_133
*2235 FILLER_56_139
*2236 FILLER_56_141
*2237 FILLER_56_15
*2238 FILLER_56_153
*2239 FILLER_56_165
*2240 FILLER_56_177
*2241 FILLER_56_189
*2242 FILLER_56_195
*2243 FILLER_56_197
*2244 FILLER_56_209
*2245 FILLER_56_221
*2246 FILLER_56_233
*2247 FILLER_56_245
*2248 FILLER_56_251
*2249 FILLER_56_253
*2250 FILLER_56_265
*2251 FILLER_56_27
*2252 FILLER_56_277
*2253 FILLER_56_289
*2254 FILLER_56_29
*2255 FILLER_56_3
*2256 FILLER_56_301
*2257 FILLER_56_307
*2258 FILLER_56_309
*2259 FILLER_56_321
*2260 FILLER_56_333
*2261 FILLER_56_345
*2262 FILLER_56_357
*2263 FILLER_56_363
*2264 FILLER_56_365
*2265 FILLER_56_377
*2266 FILLER_56_389
*2267 FILLER_56_401
*2268 FILLER_56_41
*2269 FILLER_56_53
*2270 FILLER_56_65
*2271 FILLER_56_77
*2272 FILLER_56_83
*2273 FILLER_56_85
*2274 FILLER_56_97
*2275 FILLER_57_105
*2276 FILLER_57_111
*2277 FILLER_57_113
*2278 FILLER_57_125
*2279 FILLER_57_137
*2280 FILLER_57_149
*2281 FILLER_57_15
*2282 FILLER_57_161
*2283 FILLER_57_167
*2284 FILLER_57_169
*2285 FILLER_57_181
*2286 FILLER_57_193
*2287 FILLER_57_205
*2288 FILLER_57_217
*2289 FILLER_57_223
*2290 FILLER_57_225
*2291 FILLER_57_237
*2292 FILLER_57_249
*2293 FILLER_57_261
*2294 FILLER_57_27
*2295 FILLER_57_273
*2296 FILLER_57_279
*2297 FILLER_57_281
*2298 FILLER_57_293
*2299 FILLER_57_3
*2300 FILLER_57_305
*2301 FILLER_57_317
*2302 FILLER_57_329
*2303 FILLER_57_335
*2304 FILLER_57_337
*2305 FILLER_57_349
*2306 FILLER_57_361
*2307 FILLER_57_373
*2308 FILLER_57_385
*2309 FILLER_57_39
*2310 FILLER_57_391
*2311 FILLER_57_393
*2312 FILLER_57_405
*2313 FILLER_57_51
*2314 FILLER_57_55
*2315 FILLER_57_57
*2316 FILLER_57_69
*2317 FILLER_57_81
*2318 FILLER_57_93
*2319 FILLER_58_109
*2320 FILLER_58_121
*2321 FILLER_58_133
*2322 FILLER_58_139
*2323 FILLER_58_141
*2324 FILLER_58_15
*2325 FILLER_58_153
*2326 FILLER_58_165
*2327 FILLER_58_177
*2328 FILLER_58_189
*2329 FILLER_58_195
*2330 FILLER_58_197
*2331 FILLER_58_209
*2332 FILLER_58_221
*2333 FILLER_58_233
*2334 FILLER_58_245
*2335 FILLER_58_251
*2336 FILLER_58_253
*2337 FILLER_58_265
*2338 FILLER_58_27
*2339 FILLER_58_277
*2340 FILLER_58_289
*2341 FILLER_58_29
*2342 FILLER_58_3
*2343 FILLER_58_301
*2344 FILLER_58_307
*2345 FILLER_58_309
*2346 FILLER_58_321
*2347 FILLER_58_333
*2348 FILLER_58_345
*2349 FILLER_58_357
*2350 FILLER_58_363
*2351 FILLER_58_365
*2352 FILLER_58_377
*2353 FILLER_58_389
*2354 FILLER_58_401
*2355 FILLER_58_41
*2356 FILLER_58_53
*2357 FILLER_58_65
*2358 FILLER_58_77
*2359 FILLER_58_83
*2360 FILLER_58_85
*2361 FILLER_58_97
*2362 FILLER_59_105
*2363 FILLER_59_111
*2364 FILLER_59_113
*2365 FILLER_59_125
*2366 FILLER_59_137
*2367 FILLER_59_149
*2368 FILLER_59_15
*2369 FILLER_59_161
*2370 FILLER_59_167
*2371 FILLER_59_169
*2372 FILLER_59_181
*2373 FILLER_59_193
*2374 FILLER_59_205
*2375 FILLER_59_217
*2376 FILLER_59_223
*2377 FILLER_59_225
*2378 FILLER_59_237
*2379 FILLER_59_249
*2380 FILLER_59_261
*2381 FILLER_59_27
*2382 FILLER_59_273
*2383 FILLER_59_279
*2384 FILLER_59_281
*2385 FILLER_59_293
*2386 FILLER_59_3
*2387 FILLER_59_305
*2388 FILLER_59_317
*2389 FILLER_59_329
*2390 FILLER_59_335
*2391 FILLER_59_337
*2392 FILLER_59_349
*2393 FILLER_59_361
*2394 FILLER_59_373
*2395 FILLER_59_385
*2396 FILLER_59_39
*2397 FILLER_59_391
*2398 FILLER_59_393
*2399 FILLER_59_405
*2400 FILLER_59_51
*2401 FILLER_59_55
*2402 FILLER_59_57
*2403 FILLER_59_69
*2404 FILLER_59_81
*2405 FILLER_59_93
*2406 FILLER_5_105
*2407 FILLER_5_111
*2408 FILLER_5_113
*2409 FILLER_5_125
*2410 FILLER_5_137
*2411 FILLER_5_149
*2412 FILLER_5_15
*2413 FILLER_5_161
*2414 FILLER_5_167
*2415 FILLER_5_169
*2416 FILLER_5_181
*2417 FILLER_5_193
*2418 FILLER_5_205
*2419 FILLER_5_217
*2420 FILLER_5_223
*2421 FILLER_5_225
*2422 FILLER_5_237
*2423 FILLER_5_249
*2424 FILLER_5_261
*2425 FILLER_5_27
*2426 FILLER_5_273
*2427 FILLER_5_279
*2428 FILLER_5_281
*2429 FILLER_5_293
*2430 FILLER_5_3
*2431 FILLER_5_305
*2432 FILLER_5_317
*2433 FILLER_5_329
*2434 FILLER_5_335
*2435 FILLER_5_337
*2436 FILLER_5_349
*2437 FILLER_5_361
*2438 FILLER_5_373
*2439 FILLER_5_385
*2440 FILLER_5_39
*2441 FILLER_5_391
*2442 FILLER_5_393
*2443 FILLER_5_405
*2444 FILLER_5_51
*2445 FILLER_5_55
*2446 FILLER_5_57
*2447 FILLER_5_69
*2448 FILLER_5_81
*2449 FILLER_5_93
*2450 FILLER_60_109
*2451 FILLER_60_121
*2452 FILLER_60_133
*2453 FILLER_60_139
*2454 FILLER_60_141
*2455 FILLER_60_15
*2456 FILLER_60_153
*2457 FILLER_60_165
*2458 FILLER_60_177
*2459 FILLER_60_189
*2460 FILLER_60_195
*2461 FILLER_60_197
*2462 FILLER_60_209
*2463 FILLER_60_221
*2464 FILLER_60_233
*2465 FILLER_60_245
*2466 FILLER_60_251
*2467 FILLER_60_253
*2468 FILLER_60_265
*2469 FILLER_60_27
*2470 FILLER_60_277
*2471 FILLER_60_289
*2472 FILLER_60_29
*2473 FILLER_60_3
*2474 FILLER_60_301
*2475 FILLER_60_307
*2476 FILLER_60_309
*2477 FILLER_60_321
*2478 FILLER_60_333
*2479 FILLER_60_345
*2480 FILLER_60_357
*2481 FILLER_60_363
*2482 FILLER_60_365
*2483 FILLER_60_377
*2484 FILLER_60_389
*2485 FILLER_60_401
*2486 FILLER_60_41
*2487 FILLER_60_53
*2488 FILLER_60_65
*2489 FILLER_60_77
*2490 FILLER_60_83
*2491 FILLER_60_85
*2492 FILLER_60_97
*2493 FILLER_61_105
*2494 FILLER_61_111
*2495 FILLER_61_113
*2496 FILLER_61_125
*2497 FILLER_61_137
*2498 FILLER_61_149
*2499 FILLER_61_15
*2500 FILLER_61_161
*2501 FILLER_61_167
*2502 FILLER_61_169
*2503 FILLER_61_181
*2504 FILLER_61_193
*2505 FILLER_61_205
*2506 FILLER_61_217
*2507 FILLER_61_223
*2508 FILLER_61_225
*2509 FILLER_61_237
*2510 FILLER_61_249
*2511 FILLER_61_261
*2512 FILLER_61_27
*2513 FILLER_61_273
*2514 FILLER_61_279
*2515 FILLER_61_281
*2516 FILLER_61_293
*2517 FILLER_61_3
*2518 FILLER_61_305
*2519 FILLER_61_317
*2520 FILLER_61_329
*2521 FILLER_61_335
*2522 FILLER_61_337
*2523 FILLER_61_349
*2524 FILLER_61_361
*2525 FILLER_61_373
*2526 FILLER_61_385
*2527 FILLER_61_39
*2528 FILLER_61_391
*2529 FILLER_61_393
*2530 FILLER_61_405
*2531 FILLER_61_51
*2532 FILLER_61_55
*2533 FILLER_61_57
*2534 FILLER_61_69
*2535 FILLER_61_81
*2536 FILLER_61_93
*2537 FILLER_62_109
*2538 FILLER_62_121
*2539 FILLER_62_133
*2540 FILLER_62_139
*2541 FILLER_62_141
*2542 FILLER_62_15
*2543 FILLER_62_153
*2544 FILLER_62_165
*2545 FILLER_62_177
*2546 FILLER_62_189
*2547 FILLER_62_195
*2548 FILLER_62_197
*2549 FILLER_62_209
*2550 FILLER_62_221
*2551 FILLER_62_233
*2552 FILLER_62_245
*2553 FILLER_62_251
*2554 FILLER_62_253
*2555 FILLER_62_265
*2556 FILLER_62_27
*2557 FILLER_62_277
*2558 FILLER_62_289
*2559 FILLER_62_29
*2560 FILLER_62_3
*2561 FILLER_62_301
*2562 FILLER_62_307
*2563 FILLER_62_309
*2564 FILLER_62_321
*2565 FILLER_62_333
*2566 FILLER_62_345
*2567 FILLER_62_357
*2568 FILLER_62_363
*2569 FILLER_62_365
*2570 FILLER_62_377
*2571 FILLER_62_389
*2572 FILLER_62_401
*2573 FILLER_62_41
*2574 FILLER_62_53
*2575 FILLER_62_65
*2576 FILLER_62_77
*2577 FILLER_62_83
*2578 FILLER_62_85
*2579 FILLER_62_97
*2580 FILLER_63_105
*2581 FILLER_63_111
*2582 FILLER_63_113
*2583 FILLER_63_125
*2584 FILLER_63_137
*2585 FILLER_63_149
*2586 FILLER_63_15
*2587 FILLER_63_161
*2588 FILLER_63_167
*2589 FILLER_63_169
*2590 FILLER_63_181
*2591 FILLER_63_193
*2592 FILLER_63_205
*2593 FILLER_63_217
*2594 FILLER_63_223
*2595 FILLER_63_225
*2596 FILLER_63_237
*2597 FILLER_63_249
*2598 FILLER_63_261
*2599 FILLER_63_27
*2600 FILLER_63_273
*2601 FILLER_63_279
*2602 FILLER_63_281
*2603 FILLER_63_293
*2604 FILLER_63_3
*2605 FILLER_63_305
*2606 FILLER_63_317
*2607 FILLER_63_329
*2608 FILLER_63_335
*2609 FILLER_63_337
*2610 FILLER_63_349
*2611 FILLER_63_361
*2612 FILLER_63_373
*2613 FILLER_63_385
*2614 FILLER_63_39
*2615 FILLER_63_391
*2616 FILLER_63_393
*2617 FILLER_63_405
*2618 FILLER_63_51
*2619 FILLER_63_55
*2620 FILLER_63_57
*2621 FILLER_63_69
*2622 FILLER_63_81
*2623 FILLER_63_93
*2624 FILLER_64_109
*2625 FILLER_64_113
*2626 FILLER_64_125
*2627 FILLER_64_137
*2628 FILLER_64_141
*2629 FILLER_64_15
*2630 FILLER_64_153
*2631 FILLER_64_165
*2632 FILLER_64_169
*2633 FILLER_64_181
*2634 FILLER_64_193
*2635 FILLER_64_197
*2636 FILLER_64_209
*2637 FILLER_64_221
*2638 FILLER_64_225
*2639 FILLER_64_237
*2640 FILLER_64_249
*2641 FILLER_64_253
*2642 FILLER_64_265
*2643 FILLER_64_27
*2644 FILLER_64_277
*2645 FILLER_64_281
*2646 FILLER_64_29
*2647 FILLER_64_293
*2648 FILLER_64_3
*2649 FILLER_64_305
*2650 FILLER_64_309
*2651 FILLER_64_321
*2652 FILLER_64_333
*2653 FILLER_64_337
*2654 FILLER_64_349
*2655 FILLER_64_361
*2656 FILLER_64_365
*2657 FILLER_64_377
*2658 FILLER_64_389
*2659 FILLER_64_393
*2660 FILLER_64_405
*2661 FILLER_64_41
*2662 FILLER_64_53
*2663 FILLER_64_57
*2664 FILLER_64_69
*2665 FILLER_64_81
*2666 FILLER_64_85
*2667 FILLER_64_97
*2668 FILLER_6_109
*2669 FILLER_6_121
*2670 FILLER_6_133
*2671 FILLER_6_139
*2672 FILLER_6_141
*2673 FILLER_6_15
*2674 FILLER_6_153
*2675 FILLER_6_165
*2676 FILLER_6_177
*2677 FILLER_6_189
*2678 FILLER_6_195
*2679 FILLER_6_197
*2680 FILLER_6_209
*2681 FILLER_6_221
*2682 FILLER_6_233
*2683 FILLER_6_245
*2684 FILLER_6_251
*2685 FILLER_6_253
*2686 FILLER_6_265
*2687 FILLER_6_27
*2688 FILLER_6_277
*2689 FILLER_6_289
*2690 FILLER_6_29
*2691 FILLER_6_3
*2692 FILLER_6_301
*2693 FILLER_6_307
*2694 FILLER_6_309
*2695 FILLER_6_321
*2696 FILLER_6_333
*2697 FILLER_6_345
*2698 FILLER_6_357
*2699 FILLER_6_363
*2700 FILLER_6_365
*2701 FILLER_6_377
*2702 FILLER_6_389
*2703 FILLER_6_401
*2704 FILLER_6_41
*2705 FILLER_6_53
*2706 FILLER_6_65
*2707 FILLER_6_77
*2708 FILLER_6_83
*2709 FILLER_6_85
*2710 FILLER_6_97
*2711 FILLER_7_105
*2712 FILLER_7_111
*2713 FILLER_7_113
*2714 FILLER_7_125
*2715 FILLER_7_137
*2716 FILLER_7_149
*2717 FILLER_7_15
*2718 FILLER_7_161
*2719 FILLER_7_167
*2720 FILLER_7_169
*2721 FILLER_7_181
*2722 FILLER_7_193
*2723 FILLER_7_205
*2724 FILLER_7_217
*2725 FILLER_7_223
*2726 FILLER_7_225
*2727 FILLER_7_237
*2728 FILLER_7_249
*2729 FILLER_7_261
*2730 FILLER_7_27
*2731 FILLER_7_273
*2732 FILLER_7_279
*2733 FILLER_7_281
*2734 FILLER_7_293
*2735 FILLER_7_3
*2736 FILLER_7_305
*2737 FILLER_7_317
*2738 FILLER_7_329
*2739 FILLER_7_335
*2740 FILLER_7_337
*2741 FILLER_7_349
*2742 FILLER_7_361
*2743 FILLER_7_373
*2744 FILLER_7_385
*2745 FILLER_7_39
*2746 FILLER_7_391
*2747 FILLER_7_393
*2748 FILLER_7_405
*2749 FILLER_7_51
*2750 FILLER_7_55
*2751 FILLER_7_57
*2752 FILLER_7_69
*2753 FILLER_7_81
*2754 FILLER_7_93
*2755 FILLER_8_109
*2756 FILLER_8_121
*2757 FILLER_8_133
*2758 FILLER_8_139
*2759 FILLER_8_141
*2760 FILLER_8_15
*2761 FILLER_8_153
*2762 FILLER_8_165
*2763 FILLER_8_177
*2764 FILLER_8_189
*2765 FILLER_8_195
*2766 FILLER_8_197
*2767 FILLER_8_209
*2768 FILLER_8_221
*2769 FILLER_8_233
*2770 FILLER_8_245
*2771 FILLER_8_251
*2772 FILLER_8_253
*2773 FILLER_8_265
*2774 FILLER_8_27
*2775 FILLER_8_277
*2776 FILLER_8_289
*2777 FILLER_8_29
*2778 FILLER_8_3
*2779 FILLER_8_301
*2780 FILLER_8_307
*2781 FILLER_8_309
*2782 FILLER_8_321
*2783 FILLER_8_333
*2784 FILLER_8_345
*2785 FILLER_8_357
*2786 FILLER_8_363
*2787 FILLER_8_365
*2788 FILLER_8_377
*2789 FILLER_8_389
*2790 FILLER_8_401
*2791 FILLER_8_41
*2792 FILLER_8_53
*2793 FILLER_8_65
*2794 FILLER_8_77
*2795 FILLER_8_83
*2796 FILLER_8_85
*2797 FILLER_8_97
*2798 FILLER_9_105
*2799 FILLER_9_111
*2800 FILLER_9_113
*2801 FILLER_9_125
*2802 FILLER_9_137
*2803 FILLER_9_149
*2804 FILLER_9_15
*2805 FILLER_9_161
*2806 FILLER_9_167
*2807 FILLER_9_169
*2808 FILLER_9_181
*2809 FILLER_9_193
*2810 FILLER_9_205
*2811 FILLER_9_217
*2812 FILLER_9_223
*2813 FILLER_9_225
*2814 FILLER_9_237
*2815 FILLER_9_249
*2816 FILLER_9_261
*2817 FILLER_9_27
*2818 FILLER_9_273
*2819 FILLER_9_279
*2820 FILLER_9_281
*2821 FILLER_9_293
*2822 FILLER_9_3
*2823 FILLER_9_305
*2824 FILLER_9_317
*2825 FILLER_9_329
*2826 FILLER_9_335
*2827 FILLER_9_337
*2828 FILLER_9_349
*2829 FILLER_9_361
*2830 FILLER_9_373
*2831 FILLER_9_385
*2832 FILLER_9_39
*2833 FILLER_9_391
*2834 FILLER_9_393
*2835 FILLER_9_405
*2836 FILLER_9_51
*2837 FILLER_9_55
*2838 FILLER_9_57
*2839 FILLER_9_69
*2840 FILLER_9_81
*2841 FILLER_9_93
*2842 PHY_EDGE_ROW_0_Left_65
*2843 PHY_EDGE_ROW_0_Right_0
*2844 PHY_EDGE_ROW_10_Left_75
*2845 PHY_EDGE_ROW_10_Right_10
*2846 PHY_EDGE_ROW_11_Left_76
*2847 PHY_EDGE_ROW_11_Right_11
*2848 PHY_EDGE_ROW_12_Left_77
*2849 PHY_EDGE_ROW_12_Right_12
*2850 PHY_EDGE_ROW_13_Left_78
*2851 PHY_EDGE_ROW_13_Right_13
*2852 PHY_EDGE_ROW_14_Left_79
*2853 PHY_EDGE_ROW_14_Right_14
*2854 PHY_EDGE_ROW_15_Left_80
*2855 PHY_EDGE_ROW_15_Right_15
*2856 PHY_EDGE_ROW_16_Left_81
*2857 PHY_EDGE_ROW_16_Right_16
*2858 PHY_EDGE_ROW_17_Left_82
*2859 PHY_EDGE_ROW_17_Right_17
*2860 PHY_EDGE_ROW_18_Left_83
*2861 PHY_EDGE_ROW_18_Right_18
*2862 PHY_EDGE_ROW_19_Left_84
*2863 PHY_EDGE_ROW_19_Right_19
*2864 PHY_EDGE_ROW_1_Left_66
*2865 PHY_EDGE_ROW_1_Right_1
*2866 PHY_EDGE_ROW_20_Left_85
*2867 PHY_EDGE_ROW_20_Right_20
*2868 PHY_EDGE_ROW_21_Left_86
*2869 PHY_EDGE_ROW_21_Right_21
*2870 PHY_EDGE_ROW_22_Left_87
*2871 PHY_EDGE_ROW_22_Right_22
*2872 PHY_EDGE_ROW_23_Left_88
*2873 PHY_EDGE_ROW_23_Right_23
*2874 PHY_EDGE_ROW_24_Left_89
*2875 PHY_EDGE_ROW_24_Right_24
*2876 PHY_EDGE_ROW_25_Left_90
*2877 PHY_EDGE_ROW_25_Right_25
*2878 PHY_EDGE_ROW_26_Left_91
*2879 PHY_EDGE_ROW_26_Right_26
*2880 PHY_EDGE_ROW_27_Left_92
*2881 PHY_EDGE_ROW_27_Right_27
*2882 PHY_EDGE_ROW_28_Left_93
*2883 PHY_EDGE_ROW_28_Right_28
*2884 PHY_EDGE_ROW_29_Left_94
*2885 PHY_EDGE_ROW_29_Right_29
*2886 PHY_EDGE_ROW_2_Left_67
*2887 PHY_EDGE_ROW_2_Right_2
*2888 PHY_EDGE_ROW_30_Left_95
*2889 PHY_EDGE_ROW_30_Right_30
*2890 PHY_EDGE_ROW_31_Left_96
*2891 PHY_EDGE_ROW_31_Right_31
*2892 PHY_EDGE_ROW_32_Left_97
*2893 PHY_EDGE_ROW_32_Right_32
*2894 PHY_EDGE_ROW_33_Left_98
*2895 PHY_EDGE_ROW_33_Right_33
*2896 PHY_EDGE_ROW_34_Left_99
*2897 PHY_EDGE_ROW_34_Right_34
*2898 PHY_EDGE_ROW_35_Left_100
*2899 PHY_EDGE_ROW_35_Right_35
*2900 PHY_EDGE_ROW_36_Left_101
*2901 PHY_EDGE_ROW_36_Right_36
*2902 PHY_EDGE_ROW_37_Left_102
*2903 PHY_EDGE_ROW_37_Right_37
*2904 PHY_EDGE_ROW_38_Left_103
*2905 PHY_EDGE_ROW_38_Right_38
*2906 PHY_EDGE_ROW_39_Left_104
*2907 PHY_EDGE_ROW_39_Right_39
*2908 PHY_EDGE_ROW_3_Left_68
*2909 PHY_EDGE_ROW_3_Right_3
*2910 PHY_EDGE_ROW_40_Left_105
*2911 PHY_EDGE_ROW_40_Right_40
*2912 PHY_EDGE_ROW_41_Left_106
*2913 PHY_EDGE_ROW_41_Right_41
*2914 PHY_EDGE_ROW_42_Left_107
*2915 PHY_EDGE_ROW_42_Right_42
*2916 PHY_EDGE_ROW_43_Left_108
*2917 PHY_EDGE_ROW_43_Right_43
*2918 PHY_EDGE_ROW_44_Left_109
*2919 PHY_EDGE_ROW_44_Right_44
*2920 PHY_EDGE_ROW_45_Left_110
*2921 PHY_EDGE_ROW_45_Right_45
*2922 PHY_EDGE_ROW_46_Left_111
*2923 PHY_EDGE_ROW_46_Right_46
*2924 PHY_EDGE_ROW_47_Left_112
*2925 PHY_EDGE_ROW_47_Right_47
*2926 PHY_EDGE_ROW_48_Left_113
*2927 PHY_EDGE_ROW_48_Right_48
*2928 PHY_EDGE_ROW_49_Left_114
*2929 PHY_EDGE_ROW_49_Right_49
*2930 PHY_EDGE_ROW_4_Left_69
*2931 PHY_EDGE_ROW_4_Right_4
*2932 PHY_EDGE_ROW_50_Left_115
*2933 PHY_EDGE_ROW_50_Right_50
*2934 PHY_EDGE_ROW_51_Left_116
*2935 PHY_EDGE_ROW_51_Right_51
*2936 PHY_EDGE_ROW_52_Left_117
*2937 PHY_EDGE_ROW_52_Right_52
*2938 PHY_EDGE_ROW_53_Left_118
*2939 PHY_EDGE_ROW_53_Right_53
*2940 PHY_EDGE_ROW_54_Left_119
*2941 PHY_EDGE_ROW_54_Right_54
*2942 PHY_EDGE_ROW_55_Left_120
*2943 PHY_EDGE_ROW_55_Right_55
*2944 PHY_EDGE_ROW_56_Left_121
*2945 PHY_EDGE_ROW_56_Right_56
*2946 PHY_EDGE_ROW_57_Left_122
*2947 PHY_EDGE_ROW_57_Right_57
*2948 PHY_EDGE_ROW_58_Left_123
*2949 PHY_EDGE_ROW_58_Right_58
*2950 PHY_EDGE_ROW_59_Left_124
*2951 PHY_EDGE_ROW_59_Right_59
*2952 PHY_EDGE_ROW_5_Left_70
*2953 PHY_EDGE_ROW_5_Right_5
*2954 PHY_EDGE_ROW_60_Left_125
*2955 PHY_EDGE_ROW_60_Right_60
*2956 PHY_EDGE_ROW_61_Left_126
*2957 PHY_EDGE_ROW_61_Right_61
*2958 PHY_EDGE_ROW_62_Left_127
*2959 PHY_EDGE_ROW_62_Right_62
*2960 PHY_EDGE_ROW_63_Left_128
*2961 PHY_EDGE_ROW_63_Right_63
*2962 PHY_EDGE_ROW_64_Left_129
*2963 PHY_EDGE_ROW_64_Right_64
*2964 PHY_EDGE_ROW_6_Left_71
*2965 PHY_EDGE_ROW_6_Right_6
*2966 PHY_EDGE_ROW_7_Left_72
*2967 PHY_EDGE_ROW_7_Right_7
*2968 PHY_EDGE_ROW_8_Left_73
*2969 PHY_EDGE_ROW_8_Right_8
*2970 PHY_EDGE_ROW_9_Left_74
*2971 PHY_EDGE_ROW_9_Right_9
*2972 TAP_TAPCELL_ROW_0_130
*2973 TAP_TAPCELL_ROW_0_131
*2974 TAP_TAPCELL_ROW_0_132
*2975 TAP_TAPCELL_ROW_0_133
*2976 TAP_TAPCELL_ROW_0_134
*2977 TAP_TAPCELL_ROW_0_135
*2978 TAP_TAPCELL_ROW_0_136
*2979 TAP_TAPCELL_ROW_0_137
*2980 TAP_TAPCELL_ROW_0_138
*2981 TAP_TAPCELL_ROW_0_139
*2982 TAP_TAPCELL_ROW_0_140
*2983 TAP_TAPCELL_ROW_0_141
*2984 TAP_TAPCELL_ROW_0_142
*2985 TAP_TAPCELL_ROW_0_143
*2986 TAP_TAPCELL_ROW_10_207
*2987 TAP_TAPCELL_ROW_10_208
*2988 TAP_TAPCELL_ROW_10_209
*2989 TAP_TAPCELL_ROW_10_210
*2990 TAP_TAPCELL_ROW_10_211
*2991 TAP_TAPCELL_ROW_10_212
*2992 TAP_TAPCELL_ROW_10_213
*2993 TAP_TAPCELL_ROW_11_214
*2994 TAP_TAPCELL_ROW_11_215
*2995 TAP_TAPCELL_ROW_11_216
*2996 TAP_TAPCELL_ROW_11_217
*2997 TAP_TAPCELL_ROW_11_218
*2998 TAP_TAPCELL_ROW_11_219
*2999 TAP_TAPCELL_ROW_11_220
*3000 TAP_TAPCELL_ROW_12_221
*3001 TAP_TAPCELL_ROW_12_222
*3002 TAP_TAPCELL_ROW_12_223
*3003 TAP_TAPCELL_ROW_12_224
*3004 TAP_TAPCELL_ROW_12_225
*3005 TAP_TAPCELL_ROW_12_226
*3006 TAP_TAPCELL_ROW_12_227
*3007 TAP_TAPCELL_ROW_13_228
*3008 TAP_TAPCELL_ROW_13_229
*3009 TAP_TAPCELL_ROW_13_230
*3010 TAP_TAPCELL_ROW_13_231
*3011 TAP_TAPCELL_ROW_13_232
*3012 TAP_TAPCELL_ROW_13_233
*3013 TAP_TAPCELL_ROW_13_234
*3014 TAP_TAPCELL_ROW_14_235
*3015 TAP_TAPCELL_ROW_14_236
*3016 TAP_TAPCELL_ROW_14_237
*3017 TAP_TAPCELL_ROW_14_238
*3018 TAP_TAPCELL_ROW_14_239
*3019 TAP_TAPCELL_ROW_14_240
*3020 TAP_TAPCELL_ROW_14_241
*3021 TAP_TAPCELL_ROW_15_242
*3022 TAP_TAPCELL_ROW_15_243
*3023 TAP_TAPCELL_ROW_15_244
*3024 TAP_TAPCELL_ROW_15_245
*3025 TAP_TAPCELL_ROW_15_246
*3026 TAP_TAPCELL_ROW_15_247
*3027 TAP_TAPCELL_ROW_15_248
*3028 TAP_TAPCELL_ROW_16_249
*3029 TAP_TAPCELL_ROW_16_250
*3030 TAP_TAPCELL_ROW_16_251
*3031 TAP_TAPCELL_ROW_16_252
*3032 TAP_TAPCELL_ROW_16_253
*3033 TAP_TAPCELL_ROW_16_254
*3034 TAP_TAPCELL_ROW_16_255
*3035 TAP_TAPCELL_ROW_17_256
*3036 TAP_TAPCELL_ROW_17_257
*3037 TAP_TAPCELL_ROW_17_258
*3038 TAP_TAPCELL_ROW_17_259
*3039 TAP_TAPCELL_ROW_17_260
*3040 TAP_TAPCELL_ROW_17_261
*3041 TAP_TAPCELL_ROW_17_262
*3042 TAP_TAPCELL_ROW_18_263
*3043 TAP_TAPCELL_ROW_18_264
*3044 TAP_TAPCELL_ROW_18_265
*3045 TAP_TAPCELL_ROW_18_266
*3046 TAP_TAPCELL_ROW_18_267
*3047 TAP_TAPCELL_ROW_18_268
*3048 TAP_TAPCELL_ROW_18_269
*3049 TAP_TAPCELL_ROW_19_270
*3050 TAP_TAPCELL_ROW_19_271
*3051 TAP_TAPCELL_ROW_19_272
*3052 TAP_TAPCELL_ROW_19_273
*3053 TAP_TAPCELL_ROW_19_274
*3054 TAP_TAPCELL_ROW_19_275
*3055 TAP_TAPCELL_ROW_19_276
*3056 TAP_TAPCELL_ROW_1_144
*3057 TAP_TAPCELL_ROW_1_145
*3058 TAP_TAPCELL_ROW_1_146
*3059 TAP_TAPCELL_ROW_1_147
*3060 TAP_TAPCELL_ROW_1_148
*3061 TAP_TAPCELL_ROW_1_149
*3062 TAP_TAPCELL_ROW_1_150
*3063 TAP_TAPCELL_ROW_20_277
*3064 TAP_TAPCELL_ROW_20_278
*3065 TAP_TAPCELL_ROW_20_279
*3066 TAP_TAPCELL_ROW_20_280
*3067 TAP_TAPCELL_ROW_20_281
*3068 TAP_TAPCELL_ROW_20_282
*3069 TAP_TAPCELL_ROW_20_283
*3070 TAP_TAPCELL_ROW_21_284
*3071 TAP_TAPCELL_ROW_21_285
*3072 TAP_TAPCELL_ROW_21_286
*3073 TAP_TAPCELL_ROW_21_287
*3074 TAP_TAPCELL_ROW_21_288
*3075 TAP_TAPCELL_ROW_21_289
*3076 TAP_TAPCELL_ROW_21_290
*3077 TAP_TAPCELL_ROW_22_291
*3078 TAP_TAPCELL_ROW_22_292
*3079 TAP_TAPCELL_ROW_22_293
*3080 TAP_TAPCELL_ROW_22_294
*3081 TAP_TAPCELL_ROW_22_295
*3082 TAP_TAPCELL_ROW_22_296
*3083 TAP_TAPCELL_ROW_22_297
*3084 TAP_TAPCELL_ROW_23_298
*3085 TAP_TAPCELL_ROW_23_299
*3086 TAP_TAPCELL_ROW_23_300
*3087 TAP_TAPCELL_ROW_23_301
*3088 TAP_TAPCELL_ROW_23_302
*3089 TAP_TAPCELL_ROW_23_303
*3090 TAP_TAPCELL_ROW_23_304
*3091 TAP_TAPCELL_ROW_24_305
*3092 TAP_TAPCELL_ROW_24_306
*3093 TAP_TAPCELL_ROW_24_307
*3094 TAP_TAPCELL_ROW_24_308
*3095 TAP_TAPCELL_ROW_24_309
*3096 TAP_TAPCELL_ROW_24_310
*3097 TAP_TAPCELL_ROW_24_311
*3098 TAP_TAPCELL_ROW_25_312
*3099 TAP_TAPCELL_ROW_25_313
*3100 TAP_TAPCELL_ROW_25_314
*3101 TAP_TAPCELL_ROW_25_315
*3102 TAP_TAPCELL_ROW_25_316
*3103 TAP_TAPCELL_ROW_25_317
*3104 TAP_TAPCELL_ROW_25_318
*3105 TAP_TAPCELL_ROW_26_319
*3106 TAP_TAPCELL_ROW_26_320
*3107 TAP_TAPCELL_ROW_26_321
*3108 TAP_TAPCELL_ROW_26_322
*3109 TAP_TAPCELL_ROW_26_323
*3110 TAP_TAPCELL_ROW_26_324
*3111 TAP_TAPCELL_ROW_26_325
*3112 TAP_TAPCELL_ROW_27_326
*3113 TAP_TAPCELL_ROW_27_327
*3114 TAP_TAPCELL_ROW_27_328
*3115 TAP_TAPCELL_ROW_27_329
*3116 TAP_TAPCELL_ROW_27_330
*3117 TAP_TAPCELL_ROW_27_331
*3118 TAP_TAPCELL_ROW_27_332
*3119 TAP_TAPCELL_ROW_28_333
*3120 TAP_TAPCELL_ROW_28_334
*3121 TAP_TAPCELL_ROW_28_335
*3122 TAP_TAPCELL_ROW_28_336
*3123 TAP_TAPCELL_ROW_28_337
*3124 TAP_TAPCELL_ROW_28_338
*3125 TAP_TAPCELL_ROW_28_339
*3126 TAP_TAPCELL_ROW_29_340
*3127 TAP_TAPCELL_ROW_29_341
*3128 TAP_TAPCELL_ROW_29_342
*3129 TAP_TAPCELL_ROW_29_343
*3130 TAP_TAPCELL_ROW_29_344
*3131 TAP_TAPCELL_ROW_29_345
*3132 TAP_TAPCELL_ROW_29_346
*3133 TAP_TAPCELL_ROW_2_151
*3134 TAP_TAPCELL_ROW_2_152
*3135 TAP_TAPCELL_ROW_2_153
*3136 TAP_TAPCELL_ROW_2_154
*3137 TAP_TAPCELL_ROW_2_155
*3138 TAP_TAPCELL_ROW_2_156
*3139 TAP_TAPCELL_ROW_2_157
*3140 TAP_TAPCELL_ROW_30_347
*3141 TAP_TAPCELL_ROW_30_348
*3142 TAP_TAPCELL_ROW_30_349
*3143 TAP_TAPCELL_ROW_30_350
*3144 TAP_TAPCELL_ROW_30_351
*3145 TAP_TAPCELL_ROW_30_352
*3146 TAP_TAPCELL_ROW_30_353
*3147 TAP_TAPCELL_ROW_31_354
*3148 TAP_TAPCELL_ROW_31_355
*3149 TAP_TAPCELL_ROW_31_356
*3150 TAP_TAPCELL_ROW_31_357
*3151 TAP_TAPCELL_ROW_31_358
*3152 TAP_TAPCELL_ROW_31_359
*3153 TAP_TAPCELL_ROW_31_360
*3154 TAP_TAPCELL_ROW_32_361
*3155 TAP_TAPCELL_ROW_32_362
*3156 TAP_TAPCELL_ROW_32_363
*3157 TAP_TAPCELL_ROW_32_364
*3158 TAP_TAPCELL_ROW_32_365
*3159 TAP_TAPCELL_ROW_32_366
*3160 TAP_TAPCELL_ROW_32_367
*3161 TAP_TAPCELL_ROW_33_368
*3162 TAP_TAPCELL_ROW_33_369
*3163 TAP_TAPCELL_ROW_33_370
*3164 TAP_TAPCELL_ROW_33_371
*3165 TAP_TAPCELL_ROW_33_372
*3166 TAP_TAPCELL_ROW_33_373
*3167 TAP_TAPCELL_ROW_33_374
*3168 TAP_TAPCELL_ROW_34_375
*3169 TAP_TAPCELL_ROW_34_376
*3170 TAP_TAPCELL_ROW_34_377
*3171 TAP_TAPCELL_ROW_34_378
*3172 TAP_TAPCELL_ROW_34_379
*3173 TAP_TAPCELL_ROW_34_380
*3174 TAP_TAPCELL_ROW_34_381
*3175 TAP_TAPCELL_ROW_35_382
*3176 TAP_TAPCELL_ROW_35_383
*3177 TAP_TAPCELL_ROW_35_384
*3178 TAP_TAPCELL_ROW_35_385
*3179 TAP_TAPCELL_ROW_35_386
*3180 TAP_TAPCELL_ROW_35_387
*3181 TAP_TAPCELL_ROW_35_388
*3182 TAP_TAPCELL_ROW_36_389
*3183 TAP_TAPCELL_ROW_36_390
*3184 TAP_TAPCELL_ROW_36_391
*3185 TAP_TAPCELL_ROW_36_392
*3186 TAP_TAPCELL_ROW_36_393
*3187 TAP_TAPCELL_ROW_36_394
*3188 TAP_TAPCELL_ROW_36_395
*3189 TAP_TAPCELL_ROW_37_396
*3190 TAP_TAPCELL_ROW_37_397
*3191 TAP_TAPCELL_ROW_37_398
*3192 TAP_TAPCELL_ROW_37_399
*3193 TAP_TAPCELL_ROW_37_400
*3194 TAP_TAPCELL_ROW_37_401
*3195 TAP_TAPCELL_ROW_37_402
*3196 TAP_TAPCELL_ROW_38_403
*3197 TAP_TAPCELL_ROW_38_404
*3198 TAP_TAPCELL_ROW_38_405
*3199 TAP_TAPCELL_ROW_38_406
*3200 TAP_TAPCELL_ROW_38_407
*3201 TAP_TAPCELL_ROW_38_408
*3202 TAP_TAPCELL_ROW_38_409
*3203 TAP_TAPCELL_ROW_39_410
*3204 TAP_TAPCELL_ROW_39_411
*3205 TAP_TAPCELL_ROW_39_412
*3206 TAP_TAPCELL_ROW_39_413
*3207 TAP_TAPCELL_ROW_39_414
*3208 TAP_TAPCELL_ROW_39_415
*3209 TAP_TAPCELL_ROW_39_416
*3210 TAP_TAPCELL_ROW_3_158
*3211 TAP_TAPCELL_ROW_3_159
*3212 TAP_TAPCELL_ROW_3_160
*3213 TAP_TAPCELL_ROW_3_161
*3214 TAP_TAPCELL_ROW_3_162
*3215 TAP_TAPCELL_ROW_3_163
*3216 TAP_TAPCELL_ROW_3_164
*3217 TAP_TAPCELL_ROW_40_417
*3218 TAP_TAPCELL_ROW_40_418
*3219 TAP_TAPCELL_ROW_40_419
*3220 TAP_TAPCELL_ROW_40_420
*3221 TAP_TAPCELL_ROW_40_421
*3222 TAP_TAPCELL_ROW_40_422
*3223 TAP_TAPCELL_ROW_40_423
*3224 TAP_TAPCELL_ROW_41_424
*3225 TAP_TAPCELL_ROW_41_425
*3226 TAP_TAPCELL_ROW_41_426
*3227 TAP_TAPCELL_ROW_41_427
*3228 TAP_TAPCELL_ROW_41_428
*3229 TAP_TAPCELL_ROW_41_429
*3230 TAP_TAPCELL_ROW_41_430
*3231 TAP_TAPCELL_ROW_42_431
*3232 TAP_TAPCELL_ROW_42_432
*3233 TAP_TAPCELL_ROW_42_433
*3234 TAP_TAPCELL_ROW_42_434
*3235 TAP_TAPCELL_ROW_42_435
*3236 TAP_TAPCELL_ROW_42_436
*3237 TAP_TAPCELL_ROW_42_437
*3238 TAP_TAPCELL_ROW_43_438
*3239 TAP_TAPCELL_ROW_43_439
*3240 TAP_TAPCELL_ROW_43_440
*3241 TAP_TAPCELL_ROW_43_441
*3242 TAP_TAPCELL_ROW_43_442
*3243 TAP_TAPCELL_ROW_43_443
*3244 TAP_TAPCELL_ROW_43_444
*3245 TAP_TAPCELL_ROW_44_445
*3246 TAP_TAPCELL_ROW_44_446
*3247 TAP_TAPCELL_ROW_44_447
*3248 TAP_TAPCELL_ROW_44_448
*3249 TAP_TAPCELL_ROW_44_449
*3250 TAP_TAPCELL_ROW_44_450
*3251 TAP_TAPCELL_ROW_44_451
*3252 TAP_TAPCELL_ROW_45_452
*3253 TAP_TAPCELL_ROW_45_453
*3254 TAP_TAPCELL_ROW_45_454
*3255 TAP_TAPCELL_ROW_45_455
*3256 TAP_TAPCELL_ROW_45_456
*3257 TAP_TAPCELL_ROW_45_457
*3258 TAP_TAPCELL_ROW_45_458
*3259 TAP_TAPCELL_ROW_46_459
*3260 TAP_TAPCELL_ROW_46_460
*3261 TAP_TAPCELL_ROW_46_461
*3262 TAP_TAPCELL_ROW_46_462
*3263 TAP_TAPCELL_ROW_46_463
*3264 TAP_TAPCELL_ROW_46_464
*3265 TAP_TAPCELL_ROW_46_465
*3266 TAP_TAPCELL_ROW_47_466
*3267 TAP_TAPCELL_ROW_47_467
*3268 TAP_TAPCELL_ROW_47_468
*3269 TAP_TAPCELL_ROW_47_469
*3270 TAP_TAPCELL_ROW_47_470
*3271 TAP_TAPCELL_ROW_47_471
*3272 TAP_TAPCELL_ROW_47_472
*3273 TAP_TAPCELL_ROW_48_473
*3274 TAP_TAPCELL_ROW_48_474
*3275 TAP_TAPCELL_ROW_48_475
*3276 TAP_TAPCELL_ROW_48_476
*3277 TAP_TAPCELL_ROW_48_477
*3278 TAP_TAPCELL_ROW_48_478
*3279 TAP_TAPCELL_ROW_48_479
*3280 TAP_TAPCELL_ROW_49_480
*3281 TAP_TAPCELL_ROW_49_481
*3282 TAP_TAPCELL_ROW_49_482
*3283 TAP_TAPCELL_ROW_49_483
*3284 TAP_TAPCELL_ROW_49_484
*3285 TAP_TAPCELL_ROW_49_485
*3286 TAP_TAPCELL_ROW_49_486
*3287 TAP_TAPCELL_ROW_4_165
*3288 TAP_TAPCELL_ROW_4_166
*3289 TAP_TAPCELL_ROW_4_167
*3290 TAP_TAPCELL_ROW_4_168
*3291 TAP_TAPCELL_ROW_4_169
*3292 TAP_TAPCELL_ROW_4_170
*3293 TAP_TAPCELL_ROW_4_171
*3294 TAP_TAPCELL_ROW_50_487
*3295 TAP_TAPCELL_ROW_50_488
*3296 TAP_TAPCELL_ROW_50_489
*3297 TAP_TAPCELL_ROW_50_490
*3298 TAP_TAPCELL_ROW_50_491
*3299 TAP_TAPCELL_ROW_50_492
*3300 TAP_TAPCELL_ROW_50_493
*3301 TAP_TAPCELL_ROW_51_494
*3302 TAP_TAPCELL_ROW_51_495
*3303 TAP_TAPCELL_ROW_51_496
*3304 TAP_TAPCELL_ROW_51_497
*3305 TAP_TAPCELL_ROW_51_498
*3306 TAP_TAPCELL_ROW_51_499
*3307 TAP_TAPCELL_ROW_51_500
*3308 TAP_TAPCELL_ROW_52_501
*3309 TAP_TAPCELL_ROW_52_502
*3310 TAP_TAPCELL_ROW_52_503
*3311 TAP_TAPCELL_ROW_52_504
*3312 TAP_TAPCELL_ROW_52_505
*3313 TAP_TAPCELL_ROW_52_506
*3314 TAP_TAPCELL_ROW_52_507
*3315 TAP_TAPCELL_ROW_53_508
*3316 TAP_TAPCELL_ROW_53_509
*3317 TAP_TAPCELL_ROW_53_510
*3318 TAP_TAPCELL_ROW_53_511
*3319 TAP_TAPCELL_ROW_53_512
*3320 TAP_TAPCELL_ROW_53_513
*3321 TAP_TAPCELL_ROW_53_514
*3322 TAP_TAPCELL_ROW_54_515
*3323 TAP_TAPCELL_ROW_54_516
*3324 TAP_TAPCELL_ROW_54_517
*3325 TAP_TAPCELL_ROW_54_518
*3326 TAP_TAPCELL_ROW_54_519
*3327 TAP_TAPCELL_ROW_54_520
*3328 TAP_TAPCELL_ROW_54_521
*3329 TAP_TAPCELL_ROW_55_522
*3330 TAP_TAPCELL_ROW_55_523
*3331 TAP_TAPCELL_ROW_55_524
*3332 TAP_TAPCELL_ROW_55_525
*3333 TAP_TAPCELL_ROW_55_526
*3334 TAP_TAPCELL_ROW_55_527
*3335 TAP_TAPCELL_ROW_55_528
*3336 TAP_TAPCELL_ROW_56_529
*3337 TAP_TAPCELL_ROW_56_530
*3338 TAP_TAPCELL_ROW_56_531
*3339 TAP_TAPCELL_ROW_56_532
*3340 TAP_TAPCELL_ROW_56_533
*3341 TAP_TAPCELL_ROW_56_534
*3342 TAP_TAPCELL_ROW_56_535
*3343 TAP_TAPCELL_ROW_57_536
*3344 TAP_TAPCELL_ROW_57_537
*3345 TAP_TAPCELL_ROW_57_538
*3346 TAP_TAPCELL_ROW_57_539
*3347 TAP_TAPCELL_ROW_57_540
*3348 TAP_TAPCELL_ROW_57_541
*3349 TAP_TAPCELL_ROW_57_542
*3350 TAP_TAPCELL_ROW_58_543
*3351 TAP_TAPCELL_ROW_58_544
*3352 TAP_TAPCELL_ROW_58_545
*3353 TAP_TAPCELL_ROW_58_546
*3354 TAP_TAPCELL_ROW_58_547
*3355 TAP_TAPCELL_ROW_58_548
*3356 TAP_TAPCELL_ROW_58_549
*3357 TAP_TAPCELL_ROW_59_550
*3358 TAP_TAPCELL_ROW_59_551
*3359 TAP_TAPCELL_ROW_59_552
*3360 TAP_TAPCELL_ROW_59_553
*3361 TAP_TAPCELL_ROW_59_554
*3362 TAP_TAPCELL_ROW_59_555
*3363 TAP_TAPCELL_ROW_59_556
*3364 TAP_TAPCELL_ROW_5_172
*3365 TAP_TAPCELL_ROW_5_173
*3366 TAP_TAPCELL_ROW_5_174
*3367 TAP_TAPCELL_ROW_5_175
*3368 TAP_TAPCELL_ROW_5_176
*3369 TAP_TAPCELL_ROW_5_177
*3370 TAP_TAPCELL_ROW_5_178
*3371 TAP_TAPCELL_ROW_60_557
*3372 TAP_TAPCELL_ROW_60_558
*3373 TAP_TAPCELL_ROW_60_559
*3374 TAP_TAPCELL_ROW_60_560
*3375 TAP_TAPCELL_ROW_60_561
*3376 TAP_TAPCELL_ROW_60_562
*3377 TAP_TAPCELL_ROW_60_563
*3378 TAP_TAPCELL_ROW_61_564
*3379 TAP_TAPCELL_ROW_61_565
*3380 TAP_TAPCELL_ROW_61_566
*3381 TAP_TAPCELL_ROW_61_567
*3382 TAP_TAPCELL_ROW_61_568
*3383 TAP_TAPCELL_ROW_61_569
*3384 TAP_TAPCELL_ROW_61_570
*3385 TAP_TAPCELL_ROW_62_571
*3386 TAP_TAPCELL_ROW_62_572
*3387 TAP_TAPCELL_ROW_62_573
*3388 TAP_TAPCELL_ROW_62_574
*3389 TAP_TAPCELL_ROW_62_575
*3390 TAP_TAPCELL_ROW_62_576
*3391 TAP_TAPCELL_ROW_62_577
*3392 TAP_TAPCELL_ROW_63_578
*3393 TAP_TAPCELL_ROW_63_579
*3394 TAP_TAPCELL_ROW_63_580
*3395 TAP_TAPCELL_ROW_63_581
*3396 TAP_TAPCELL_ROW_63_582
*3397 TAP_TAPCELL_ROW_63_583
*3398 TAP_TAPCELL_ROW_63_584
*3399 TAP_TAPCELL_ROW_64_585
*3400 TAP_TAPCELL_ROW_64_586
*3401 TAP_TAPCELL_ROW_64_587
*3402 TAP_TAPCELL_ROW_64_588
*3403 TAP_TAPCELL_ROW_64_589
*3404 TAP_TAPCELL_ROW_64_590
*3405 TAP_TAPCELL_ROW_64_591
*3406 TAP_TAPCELL_ROW_64_592
*3407 TAP_TAPCELL_ROW_64_593
*3408 TAP_TAPCELL_ROW_64_594
*3409 TAP_TAPCELL_ROW_64_595
*3410 TAP_TAPCELL_ROW_64_596
*3411 TAP_TAPCELL_ROW_64_597
*3412 TAP_TAPCELL_ROW_64_598
*3413 TAP_TAPCELL_ROW_6_179
*3414 TAP_TAPCELL_ROW_6_180
*3415 TAP_TAPCELL_ROW_6_181
*3416 TAP_TAPCELL_ROW_6_182
*3417 TAP_TAPCELL_ROW_6_183
*3418 TAP_TAPCELL_ROW_6_184
*3419 TAP_TAPCELL_ROW_6_185
*3420 TAP_TAPCELL_ROW_7_186
*3421 TAP_TAPCELL_ROW_7_187
*3422 TAP_TAPCELL_ROW_7_188
*3423 TAP_TAPCELL_ROW_7_189
*3424 TAP_TAPCELL_ROW_7_190
*3425 TAP_TAPCELL_ROW_7_191
*3426 TAP_TAPCELL_ROW_7_192
*3427 TAP_TAPCELL_ROW_8_193
*3428 TAP_TAPCELL_ROW_8_194
*3429 TAP_TAPCELL_ROW_8_195
*3430 TAP_TAPCELL_ROW_8_196
*3431 TAP_TAPCELL_ROW_8_197
*3432 TAP_TAPCELL_ROW_8_198
*3433 TAP_TAPCELL_ROW_8_199
*3434 TAP_TAPCELL_ROW_9_200
*3435 TAP_TAPCELL_ROW_9_201
*3436 TAP_TAPCELL_ROW_9_202
*3437 TAP_TAPCELL_ROW_9_203
*3438 TAP_TAPCELL_ROW_9_204
*3439 TAP_TAPCELL_ROW_9_205
*3440 TAP_TAPCELL_ROW_9_206
*3441 _06_
*3442 _07_
*3443 _08_
*3444 _09_
*3445 _10_
*3446 _11_
*3447 _12_
*3448 _13_
*3449 _14_
*3450 _15_
*3451 clkbuf_0_clk
*3452 clkbuf_1_0__f_clk
*3453 clkbuf_1_1__f_clk
*3454 clkload0
*3455 hold1
*3456 hold2
*3457 hold3
*3458 hold4
*3459 input1
*3460 output2
*3461 output3
*3462 output4
*3463 output5

*PORTS
clk I
count[0] O
count[1] O
count[2] O
count[3] O
rst_n I

*D_NET *3 0.0160109
*CONN
*P clk I
*I *3451:A I *D sky130_fd_sc_hd__clkbuf_16
*CAP
1 clk 0.00795321
2 *3451:A 0.00795321
3 *3451:A *3450:D 6.62524e-05
4 *3451:A *3453:A 0
5 *3451:A *19:21 3.82741e-05
*RES
1 clk *3451:A 27.2143 
*END

*D_NET *4 0.000520559
*CONN
*P count[0] O
*I *3460:X O *D sky130_fd_sc_hd__buf_2
*CAP
1 count[0] 0.000212777
2 *3460:X 0.000212777
3 count[0] count[3] 9.50048e-05
*RES
1 *3460:X count[0] 5.41503 
*END

*D_NET *5 0.000505686
*CONN
*P count[1] O
*I *3461:X O *D sky130_fd_sc_hd__buf_2
*CAP
1 count[1] 0.000168374
2 *3461:X 0.000168374
3 count[1] count[2] 0
4 count[1] count[3] 9.25475e-05
5 count[1] *3459:A 7.63901e-05
*RES
1 *3461:X count[1] 5.16003 
*END

*D_NET *6 0.00052722
*CONN
*P count[2] O
*I *3462:X O *D sky130_fd_sc_hd__buf_2
*CAP
1 count[2] 0.000220942
2 *3462:X 0.000220942
3 count[2] *3459:A 8.53361e-05
4 count[1] count[2] 0
*RES
1 *3462:X count[2] 5.41503 
*END

*D_NET *7 0.00058457
*CONN
*P count[3] O
*I *3463:X O *D sky130_fd_sc_hd__buf_2
*CAP
1 count[3] 0.000198509
2 *3463:X 0.000198509
3 count[0] count[3] 9.50048e-05
4 count[1] count[3] 9.25475e-05
*RES
1 *3463:X count[3] 5.92503 
*END

*D_NET *8 0.000507629
*CONN
*P rst_n I
*I *3459:A I *D sky130_fd_sc_hd__buf_1
*CAP
1 rst_n 0.000172951
2 *3459:A 0.000172951
3 count[1] *3459:A 7.63901e-05
4 count[2] *3459:A 8.53361e-05
*RES
1 rst_n *3459:A 5.61177 
*END

*D_NET *9 0.00113512
*CONN
*I *3447:D I *D sky130_fd_sc_hd__dfrtp_2
*I *3441:Y O *D sky130_fd_sc_hd__inv_2
*CAP
1 *3447:D 0.000226768
2 *3441:Y 0.000226768
3 *3447:D *3442:B1 4.82919e-05
4 *3447:D *3443:A 0.000132089
5 *3447:D *3443:C 0.000331135
6 *3447:D *3446:B 0
7 *3447:D *3447:CLK 2.49909e-05
8 *3447:D *3448:D 2.37234e-05
9 *3447:D *3463:A 0
10 *3447:D *20:23 5.16418e-05
11 *3447:D *23:6 6.97118e-05
*RES
1 *3441:Y *3447:D 12.72 
*END

*D_NET *10 0.000750725
*CONN
*I *3448:D I *D sky130_fd_sc_hd__dfrtp_1
*I *3446:X O *D sky130_fd_sc_hd__xor2_1
*CAP
1 *3448:D 0.000166826
2 *3446:X 0.000166826
3 *3448:D *3446:B 9.54399e-05
4 *3448:D *3448:CLK 4.43682e-05
5 *3448:D *3448:RESET_B 5.83121e-06
6 *3448:D *3461:A 8.49205e-05
7 *3448:D *20:23 0.000162791
8 *3447:D *3448:D 2.37234e-05
*RES
1 *3446:X *3448:D 11.31 
*END

*D_NET *11 0.000538116
*CONN
*I *3449:D I *D sky130_fd_sc_hd__dfrtp_1
*I *3444:Y O *D sky130_fd_sc_hd__nor2_1
*CAP
1 *3449:D 0.000269058
2 *3444:Y 0.000269058
3 *3449:D *3450:CLK 0
*RES
1 *3444:Y *3449:D 10.845 
*END

*D_NET *12 0.000833651
*CONN
*I *3450:D I *D sky130_fd_sc_hd__dfrtp_1
*I *3445:X O *D sky130_fd_sc_hd__xor2_1
*CAP
1 *3450:D 0.000301588
2 *3445:X 0.000301588
3 *3450:D *3444:B 0.000147076
4 *3450:D *3452:A 0
5 *3450:D *3453:A 0
6 *3450:D *14:12 4.18603e-06
7 *3450:D *19:21 1.2961e-05
8 *3451:A *3450:D 6.62524e-05
*RES
1 *3445:X *3450:D 13.215 
*END

*D_NET *13 0.000875898
*CONN
*I *3444:A I *D sky130_fd_sc_hd__nor2_1
*I *3442:Y O *D sky130_fd_sc_hd__a21oi_1
*CAP
1 *3444:A 0.000366238
2 *3442:Y 0.000366238
3 *3444:A *3442:A1 3.07421e-05
4 *3444:A *3444:B 0
5 *3444:A *3445:A 0.000112679
6 *3444:A *14:12 0
*RES
1 *3442:Y *3444:A 13.38 
*END

*D_NET *14 0.00257007
*CONN
*I *3445:B I *D sky130_fd_sc_hd__xor2_1
*I *3444:B I *D sky130_fd_sc_hd__nor2_1
*I *3443:X O *D sky130_fd_sc_hd__and3_1
*CAP
1 *3445:B 0
2 *3444:B 0.000264945
3 *3443:X 0.000674962
4 *14:12 0.000939907
5 *3444:B *3445:A 3.74619e-05
6 *14:12 *3442:A1 0
7 *14:12 *19:21 0.000234181
8 *14:12 *19:32 0.000217901
9 *14:12 *23:6 4.94474e-05
10 *3444:A *3444:B 0
11 *3444:A *14:12 0
12 *3450:D *3444:B 0.000147076
13 *3450:D *14:12 4.18603e-06
*RES
1 *3443:X *14:12 14.64 
2 *14:12 *3444:B 9.045 
3 *14:12 *3445:B 3.6 
*END

*D_NET *15 0.0042218
*CONN
*I *3453:A I *D sky130_fd_sc_hd__clkbuf_16
*I *3452:A I *D sky130_fd_sc_hd__clkbuf_16
*I *3451:X O *D sky130_fd_sc_hd__clkbuf_16
*CAP
1 *3453:A 0.000829642
2 *3452:A 0.000604816
3 *3451:X 0.000161879
4 *15:8 0.00159634
5 *3452:A *3443:C 0
6 *3452:A *3449:RESET_B 0
7 *3452:A *3450:CLK 0
8 *3452:A *16:10 0.000182554
9 *3452:A *21:10 0
10 *3453:A *3443:C 0
11 *3453:A *3447:CLK 0
12 *3453:A *3448:RESET_B 0
13 *3453:A *3454:A 8.83315e-05
14 *3453:A *3460:A 0
15 *3453:A *17:6 1.56428e-05
16 *3453:A *17:27 0.000605738
17 *3453:A *18:16 0
18 *15:8 *3456:A 0.00013686
19 *3450:D *3452:A 0
20 *3450:D *3453:A 0
21 *3451:A *3453:A 0
*RES
1 *3451:X *15:8 5.775 
2 *15:8 *3452:A 13.965 
3 *15:8 *3453:A 19.575 
*END

*D_NET *16 0.00167259
*CONN
*I *3450:CLK I *D sky130_fd_sc_hd__dfrtp_1
*I *3449:CLK I *D sky130_fd_sc_hd__dfrtp_1
*I *3452:X O *D sky130_fd_sc_hd__clkbuf_16
*CAP
1 *3450:CLK 0.000132783
2 *3449:CLK 0
3 *3452:X 0.000612235
4 *16:10 0.000745018
5 *3449:D *3450:CLK 0
6 *3452:A *3450:CLK 0
7 *3452:A *16:10 0.000182554
*RES
1 *3452:X *16:10 11.955 
2 *16:10 *3449:CLK 3.6 
3 *16:10 *3450:CLK 5.745 
*END

*D_NET *17 0.00394547
*CONN
*I *3448:CLK I *D sky130_fd_sc_hd__dfrtp_1
*I *3447:CLK I *D sky130_fd_sc_hd__dfrtp_2
*I *3454:A I *D sky130_fd_sc_hd__clkbuf_4
*I *3453:X O *D sky130_fd_sc_hd__clkbuf_16
*CAP
1 *3448:CLK 0.00017569
2 *3447:CLK 0.00029332
3 *3454:A 0.000254421
4 *3453:X 0.00022518
5 *17:27 0.000883559
6 *17:6 0.00089415
7 *3447:CLK *3442:B1 4.01584e-05
8 *3447:CLK *3443:C 0
9 *3447:CLK *3447:RESET_B 4.54998e-05
10 *3447:CLK *3448:RESET_B 0.000107432
11 *3447:CLK *18:16 4.80285e-05
12 *3448:CLK *3448:RESET_B 7.32549e-05
13 *17:27 *3448:RESET_B 0.000117089
14 *17:27 *20:23 8.61776e-06
15 *3447:D *3447:CLK 2.49909e-05
16 *3448:D *3448:CLK 4.43682e-05
17 *3453:A *3447:CLK 0
18 *3453:A *3454:A 8.83315e-05
19 *3453:A *17:6 1.56428e-05
20 *3453:A *17:27 0.000605738
*RES
1 *3453:X *17:6 4.12 
2 *17:6 *3454:A 9.41 
3 *17:6 *17:27 12.82 
4 *17:27 *3447:CLK 11.12 
5 *17:27 *3448:CLK 4.045 
*END

*D_NET *18 0.00389592
*CONN
*I *3450:RESET_B I *D sky130_fd_sc_hd__dfrtp_1
*I *3449:RESET_B I *D sky130_fd_sc_hd__dfrtp_1
*I *3448:RESET_B I *D sky130_fd_sc_hd__dfrtp_1
*I *3447:RESET_B I *D sky130_fd_sc_hd__dfrtp_2
*I *3459:X O *D sky130_fd_sc_hd__buf_1
*CAP
1 *3450:RESET_B 5.49359e-05
2 *3449:RESET_B 0.000109408
3 *3448:RESET_B 0.000166722
4 *3447:RESET_B 1.64898e-05
5 *3459:X 0.000649826
6 *18:38 0.000259763
7 *18:16 0.000326303
8 *18:6 0.000888336
9 *3447:RESET_B *3442:B1 8.0424e-05
10 *3448:RESET_B *3443:C 8.09535e-05
11 *3448:RESET_B *20:23 5.26877e-05
12 *3449:RESET_B *21:10 0.000142059
13 *3450:RESET_B *21:14 2.49909e-05
14 *18:6 *3456:A 7.25532e-05
15 *18:16 *3442:B1 7.46591e-05
16 *18:16 *3443:C 9.14049e-05
17 *18:16 *3456:A 3.03684e-05
18 *18:38 *3442:B1 0.000103192
19 *18:38 *3443:C 0.000229904
20 *18:38 *21:10 4.38051e-05
21 *18:38 *22:10 0
22 *3447:CLK *3447:RESET_B 4.54998e-05
23 *3447:CLK *3448:RESET_B 0.000107432
24 *3447:CLK *18:16 4.80285e-05
25 *3448:CLK *3448:RESET_B 7.32549e-05
26 *3448:D *3448:RESET_B 5.83121e-06
27 *3452:A *3449:RESET_B 0
28 *3453:A *3448:RESET_B 0
29 *3453:A *18:16 0
30 *17:27 *3448:RESET_B 0.000117089
*RES
1 *3459:X *18:6 8.95 
2 *18:6 *18:16 6.715 
3 *18:16 *3447:RESET_B 0.7425 
4 *18:16 *3448:RESET_B 8.6875 
5 *18:6 *18:38 5.165 
6 *18:38 *3449:RESET_B 4.1225 
7 *18:38 *3450:RESET_B 2.7425 
*END

*D_NET *19 0.00423481
*CONN
*I *3443:B I *D sky130_fd_sc_hd__and3_1
*I *3460:A I *D sky130_fd_sc_hd__buf_2
*I *3455:A I *D sky130_fd_sc_hd__dlygate4sd3_1
*I *3442:A2 I *D sky130_fd_sc_hd__a21oi_1
*I *3447:Q O *D sky130_fd_sc_hd__dfrtp_2
*CAP
1 *3443:B 0
2 *3460:A 0.00059391
3 *3455:A 0
4 *3442:A2 0.000400205
5 *3447:Q 0
6 *19:32 0.000852922
7 *19:21 0.000654657
8 *19:4 0.00079585
9 *3442:A2 *3442:B1 0.000381088
10 *19:32 *23:6 5.28586e-05
11 *3450:D *19:21 1.2961e-05
12 *3451:A *19:21 3.82741e-05
13 *3453:A *3460:A 0
14 *14:12 *19:21 0.000234181
15 *14:12 *19:32 0.000217901
*RES
1 *3447:Q *19:4 1.6 
2 *19:4 *3442:A2 6.805 
3 *19:4 *19:21 10.87 
4 *19:21 *3455:A 1.6 
5 *19:21 *19:32 4.53 
6 *19:32 *3460:A 14.585 
7 *19:32 *3443:B 1.6 
*END

*D_NET *20 0.00408087
*CONN
*I *3443:A I *D sky130_fd_sc_hd__and3_1
*I *3461:A I *D sky130_fd_sc_hd__buf_2
*I *3457:A I *D sky130_fd_sc_hd__dlygate4sd3_1
*I *3442:A1 I *D sky130_fd_sc_hd__a21oi_1
*I *3448:Q O *D sky130_fd_sc_hd__dfrtp_1
*CAP
1 *3443:A 5.65739e-05
2 *3461:A 0.000544187
3 *3457:A 0
4 *3442:A1 0.000397925
5 *3448:Q 0
6 *20:25 0.000544187
7 *20:23 0.000720007
8 *20:4 0.00106136
9 *3443:A *3446:B 6.4422e-05
10 *3461:A *3446:A 0.000143266
11 *3461:A *3463:A 1.82476e-05
12 *20:23 *3446:B 7.21296e-06
13 *3444:A *3442:A1 3.07421e-05
14 *3447:D *3443:A 0.000132089
15 *3447:D *20:23 5.16418e-05
16 *3448:D *3461:A 8.49205e-05
17 *3448:D *20:23 0.000162791
18 *3448:RESET_B *20:23 5.26877e-05
19 *14:12 *3442:A1 0
20 *17:27 *20:23 8.61776e-06
*RES
1 *3448:Q *20:4 1.6 
2 *20:4 *3442:A1 10.445 
3 *20:4 *20:23 9.965 
4 *20:23 *20:25 2 
5 *20:25 *3457:A 1.6 
6 *20:25 *3461:A 14.51 
7 *20:23 *3443:A 5.49 
*END

*D_NET *21 0.00305643
*CONN
*I *3443:C I *D sky130_fd_sc_hd__and3_1
*I *3462:A I *D sky130_fd_sc_hd__buf_2
*I *3458:A I *D sky130_fd_sc_hd__dlygate4sd3_1
*I *3449:Q O *D sky130_fd_sc_hd__dfrtp_1
*CAP
1 *3443:C 0.000349468
2 *3462:A 0.000299081
3 *3458:A 0
4 *3449:Q 0.000137216
5 *21:14 0.000471568
6 *21:10 0.000659171
7 *3443:C *3442:B1 2.16389e-05
8 *3443:C *23:6 9.16333e-06
9 *21:14 *22:10 0.000164874
10 *3447:CLK *3443:C 0
11 *3447:D *3443:C 0.000331135
12 *3448:RESET_B *3443:C 8.09535e-05
13 *3449:RESET_B *21:10 0.000142059
14 *3450:RESET_B *21:14 2.49909e-05
15 *3452:A *3443:C 0
16 *3452:A *21:10 0
17 *3453:A *3443:C 0
18 *18:16 *3443:C 9.14049e-05
19 *18:38 *3443:C 0.000229904
20 *18:38 *21:10 4.38051e-05
*RES
1 *3449:Q *21:10 6.03 
2 *21:10 *21:14 5.21 
3 *21:14 *3458:A 1.6 
4 *21:14 *3462:A 6.205 
5 *21:10 *3443:C 11.265 
*END

*D_NET *22 0.00346997
*CONN
*I *3463:A I *D sky130_fd_sc_hd__buf_2
*I *3456:A I *D sky130_fd_sc_hd__dlygate4sd3_1
*I *3450:Q O *D sky130_fd_sc_hd__dfrtp_1
*CAP
1 *3463:A 0.000605421
2 *3456:A 0.00050269
3 *3450:Q 0.000157915
4 *22:10 0.00126603
5 *3463:A *3442:B1 4.91927e-05
6 *3463:A *3446:A 7.81954e-05
7 *3463:A *3446:B 0.000340587
8 *22:10 *3442:B1 4.70343e-05
9 *3447:D *3463:A 0
10 *3461:A *3463:A 1.82476e-05
11 *15:8 *3456:A 0.00013686
12 *18:6 *3456:A 7.25532e-05
13 *18:16 *3456:A 3.03684e-05
14 *18:38 *22:10 0
15 *21:14 *22:10 0.000164874
*RES
1 *3450:Q *22:10 6.72 
2 *22:10 *3456:A 11.985 
3 *22:10 *3463:A 15.105 
*END

*D_NET *23 0.00131774
*CONN
*I *3441:A I *D sky130_fd_sc_hd__inv_2
*I *3446:B I *D sky130_fd_sc_hd__xor2_1
*I *3455:X O *D sky130_fd_sc_hd__dlygate4sd3_1
*CAP
1 *3441:A 0
2 *3446:B 0.000177581
3 *3455:X 0.000136868
4 *23:6 0.000314449
5 *3443:A *3446:B 6.4422e-05
6 *3443:C *23:6 9.16333e-06
7 *3447:D *3446:B 0
8 *3447:D *23:6 6.97118e-05
9 *3448:D *3446:B 9.54399e-05
10 *3463:A *3446:B 0.000340587
11 *14:12 *23:6 4.94474e-05
12 *19:32 *23:6 5.28586e-05
13 *20:23 *3446:B 7.21296e-06
*RES
1 *3455:X *23:6 4.465 
2 *23:6 *3446:B 10.325 
3 *23:6 *3441:A 1.6 
*END

*D_NET *24 0.000416554
*CONN
*I *3445:A I *D sky130_fd_sc_hd__xor2_1
*I *3456:X O *D sky130_fd_sc_hd__dlygate4sd3_1
*CAP
1 *3445:A 8.99088e-05
2 *3456:X 8.99088e-05
3 *3445:A *3442:B1 8.65961e-05
4 *3444:A *3445:A 0.000112679
5 *3444:B *3445:A 3.74619e-05
*RES
1 *3456:X *3445:A 9.375 
*END

*D_NET *25 0.000299454
*CONN
*I *3446:A I *D sky130_fd_sc_hd__xor2_1
*I *3457:X O *D sky130_fd_sc_hd__dlygate4sd3_1
*CAP
1 *3446:A 3.8996e-05
2 *3457:X 3.8996e-05
3 *3461:A *3446:A 0.000143266
4 *3463:A *3446:A 7.81954e-05
*RES
1 *3457:X *3446:A 8.835 
*END

*D_NET *26 0.00258421
*CONN
*I *3442:B1 I *D sky130_fd_sc_hd__a21oi_1
*I *3458:X O *D sky130_fd_sc_hd__dlygate4sd3_1
*CAP
1 *3442:B1 0.000825968
2 *3458:X 0.000825968
3 *3442:A2 *3442:B1 0.000381088
4 *3443:C *3442:B1 2.16389e-05
5 *3445:A *3442:B1 8.65961e-05
6 *3447:CLK *3442:B1 4.01584e-05
7 *3447:D *3442:B1 4.82919e-05
8 *3447:RESET_B *3442:B1 8.0424e-05
9 *3463:A *3442:B1 4.91927e-05
10 *18:16 *3442:B1 7.46591e-05
11 *18:38 *3442:B1 0.000103192
12 *22:10 *3442:B1 4.70343e-05
*RES
1 *3458:X *3442:B1 20.685 
*END
