*SPEF "ieee 1481-1999"
*DESIGN "counter_4bit"
*DATE "01:46:48 Thursday December 04, 2025"
*VENDOR "The OpenROAD Project"
*PROGRAM "OpenROAD"
*VERSION "edf00dff99f6c40d67a30c0e22a8191c5d2ed9d6"
*DESIGN_FLOW "NAME_SCOPE LOCAL" "PIN_CAP NONE"
*DIVIDER /
*DELIMITER :
*BUS_DELIMITER []
*T_UNIT 1 NS
*C_UNIT 1 PF
*R_UNIT 1 OHM
*L_UNIT 1 HENRY

*NAME_MAP
*3 clk
*4 count[0]
*5 count[1]
*6 count[2]
*7 count[3]
*8 rst_n
*9 _00_
*10 _01_
*11 _02_
*12 _03_
*13 _04_
*14 _05_
*15 clknet_0_clk
*16 clknet_1_0__leaf_clk
*17 clknet_1_1__leaf_clk
*18 net1
*19 net10
*20 net11
*21 net2
*22 net3
*23 net4
*24 net5
*25 net6
*26 net7
*27 net8
*28 net9
*29 FILLER_0_109
*30 FILLER_0_113
*31 FILLER_0_125
*32 FILLER_0_137
*33 FILLER_0_141
*34 FILLER_0_15
*35 FILLER_0_153
*36 FILLER_0_165
*37 FILLER_0_169
*38 FILLER_0_181
*39 FILLER_0_193
*40 FILLER_0_197
*41 FILLER_0_209
*42 FILLER_0_221
*43 FILLER_0_225
*44 FILLER_0_237
*45 FILLER_0_249
*46 FILLER_0_253
*47 FILLER_0_265
*48 FILLER_0_27
*49 FILLER_0_277
*50 FILLER_0_281
*51 FILLER_0_29
*52 FILLER_0_293
*53 FILLER_0_3
*54 FILLER_0_305
*55 FILLER_0_309
*56 FILLER_0_321
*57 FILLER_0_333
*58 FILLER_0_337
*59 FILLER_0_349
*60 FILLER_0_361
*61 FILLER_0_365
*62 FILLER_0_377
*63 FILLER_0_389
*64 FILLER_0_393
*65 FILLER_0_405
*66 FILLER_0_41
*67 FILLER_0_53
*68 FILLER_0_57
*69 FILLER_0_69
*70 FILLER_0_81
*71 FILLER_0_85
*72 FILLER_0_97
*73 FILLER_10_109
*74 FILLER_10_121
*75 FILLER_10_133
*76 FILLER_10_139
*77 FILLER_10_141
*78 FILLER_10_15
*79 FILLER_10_153
*80 FILLER_10_165
*81 FILLER_10_177
*82 FILLER_10_189
*83 FILLER_10_195
*84 FILLER_10_197
*85 FILLER_10_209
*86 FILLER_10_221
*87 FILLER_10_233
*88 FILLER_10_245
*89 FILLER_10_251
*90 FILLER_10_253
*91 FILLER_10_265
*92 FILLER_10_27
*93 FILLER_10_277
*94 FILLER_10_289
*95 FILLER_10_29
*96 FILLER_10_3
*97 FILLER_10_301
*98 FILLER_10_307
*99 FILLER_10_309
*100 FILLER_10_321
*101 FILLER_10_333
*102 FILLER_10_345
*103 FILLER_10_357
*104 FILLER_10_363
*105 FILLER_10_365
*106 FILLER_10_377
*107 FILLER_10_389
*108 FILLER_10_401
*109 FILLER_10_41
*110 FILLER_10_53
*111 FILLER_10_65
*112 FILLER_10_77
*113 FILLER_10_83
*114 FILLER_10_85
*115 FILLER_10_97
*116 FILLER_11_105
*117 FILLER_11_111
*118 FILLER_11_113
*119 FILLER_11_125
*120 FILLER_11_137
*121 FILLER_11_149
*122 FILLER_11_15
*123 FILLER_11_161
*124 FILLER_11_167
*125 FILLER_11_169
*126 FILLER_11_181
*127 FILLER_11_193
*128 FILLER_11_205
*129 FILLER_11_217
*130 FILLER_11_223
*131 FILLER_11_225
*132 FILLER_11_237
*133 FILLER_11_249
*134 FILLER_11_261
*135 FILLER_11_27
*136 FILLER_11_273
*137 FILLER_11_279
*138 FILLER_11_281
*139 FILLER_11_293
*140 FILLER_11_3
*141 FILLER_11_305
*142 FILLER_11_317
*143 FILLER_11_329
*144 FILLER_11_335
*145 FILLER_11_337
*146 FILLER_11_349
*147 FILLER_11_361
*148 FILLER_11_373
*149 FILLER_11_385
*150 FILLER_11_39
*151 FILLER_11_391
*152 FILLER_11_393
*153 FILLER_11_405
*154 FILLER_11_51
*155 FILLER_11_55
*156 FILLER_11_57
*157 FILLER_11_69
*158 FILLER_11_81
*159 FILLER_11_93
*160 FILLER_12_109
*161 FILLER_12_121
*162 FILLER_12_133
*163 FILLER_12_139
*164 FILLER_12_141
*165 FILLER_12_15
*166 FILLER_12_153
*167 FILLER_12_165
*168 FILLER_12_177
*169 FILLER_12_189
*170 FILLER_12_195
*171 FILLER_12_197
*172 FILLER_12_209
*173 FILLER_12_221
*174 FILLER_12_233
*175 FILLER_12_245
*176 FILLER_12_251
*177 FILLER_12_253
*178 FILLER_12_265
*179 FILLER_12_27
*180 FILLER_12_277
*181 FILLER_12_289
*182 FILLER_12_29
*183 FILLER_12_3
*184 FILLER_12_301
*185 FILLER_12_307
*186 FILLER_12_309
*187 FILLER_12_321
*188 FILLER_12_333
*189 FILLER_12_345
*190 FILLER_12_357
*191 FILLER_12_363
*192 FILLER_12_365
*193 FILLER_12_377
*194 FILLER_12_389
*195 FILLER_12_401
*196 FILLER_12_41
*197 FILLER_12_53
*198 FILLER_12_65
*199 FILLER_12_77
*200 FILLER_12_83
*201 FILLER_12_85
*202 FILLER_12_97
*203 FILLER_13_105
*204 FILLER_13_111
*205 FILLER_13_113
*206 FILLER_13_125
*207 FILLER_13_137
*208 FILLER_13_149
*209 FILLER_13_15
*210 FILLER_13_161
*211 FILLER_13_167
*212 FILLER_13_169
*213 FILLER_13_181
*214 FILLER_13_193
*215 FILLER_13_205
*216 FILLER_13_217
*217 FILLER_13_223
*218 FILLER_13_225
*219 FILLER_13_237
*220 FILLER_13_249
*221 FILLER_13_261
*222 FILLER_13_27
*223 FILLER_13_273
*224 FILLER_13_279
*225 FILLER_13_281
*226 FILLER_13_293
*227 FILLER_13_3
*228 FILLER_13_305
*229 FILLER_13_317
*230 FILLER_13_329
*231 FILLER_13_335
*232 FILLER_13_337
*233 FILLER_13_349
*234 FILLER_13_361
*235 FILLER_13_373
*236 FILLER_13_385
*237 FILLER_13_39
*238 FILLER_13_391
*239 FILLER_13_393
*240 FILLER_13_405
*241 FILLER_13_51
*242 FILLER_13_55
*243 FILLER_13_57
*244 FILLER_13_69
*245 FILLER_13_81
*246 FILLER_13_93
*247 FILLER_14_109
*248 FILLER_14_121
*249 FILLER_14_133
*250 FILLER_14_139
*251 FILLER_14_141
*252 FILLER_14_15
*253 FILLER_14_153
*254 FILLER_14_165
*255 FILLER_14_177
*256 FILLER_14_189
*257 FILLER_14_195
*258 FILLER_14_197
*259 FILLER_14_209
*260 FILLER_14_221
*261 FILLER_14_233
*262 FILLER_14_245
*263 FILLER_14_251
*264 FILLER_14_253
*265 FILLER_14_265
*266 FILLER_14_27
*267 FILLER_14_277
*268 FILLER_14_289
*269 FILLER_14_29
*270 FILLER_14_3
*271 FILLER_14_301
*272 FILLER_14_307
*273 FILLER_14_309
*274 FILLER_14_321
*275 FILLER_14_333
*276 FILLER_14_345
*277 FILLER_14_357
*278 FILLER_14_363
*279 FILLER_14_365
*280 FILLER_14_377
*281 FILLER_14_389
*282 FILLER_14_401
*283 FILLER_14_41
*284 FILLER_14_53
*285 FILLER_14_65
*286 FILLER_14_77
*287 FILLER_14_83
*288 FILLER_14_85
*289 FILLER_14_97
*290 FILLER_15_105
*291 FILLER_15_111
*292 FILLER_15_113
*293 FILLER_15_125
*294 FILLER_15_137
*295 FILLER_15_149
*296 FILLER_15_15
*297 FILLER_15_161
*298 FILLER_15_167
*299 FILLER_15_169
*300 FILLER_15_181
*301 FILLER_15_193
*302 FILLER_15_205
*303 FILLER_15_217
*304 FILLER_15_223
*305 FILLER_15_225
*306 FILLER_15_237
*307 FILLER_15_249
*308 FILLER_15_261
*309 FILLER_15_27
*310 FILLER_15_273
*311 FILLER_15_279
*312 FILLER_15_281
*313 FILLER_15_293
*314 FILLER_15_3
*315 FILLER_15_305
*316 FILLER_15_317
*317 FILLER_15_329
*318 FILLER_15_335
*319 FILLER_15_337
*320 FILLER_15_349
*321 FILLER_15_361
*322 FILLER_15_373
*323 FILLER_15_385
*324 FILLER_15_39
*325 FILLER_15_391
*326 FILLER_15_393
*327 FILLER_15_405
*328 FILLER_15_51
*329 FILLER_15_55
*330 FILLER_15_57
*331 FILLER_15_69
*332 FILLER_15_81
*333 FILLER_15_93
*334 FILLER_16_109
*335 FILLER_16_121
*336 FILLER_16_133
*337 FILLER_16_139
*338 FILLER_16_141
*339 FILLER_16_15
*340 FILLER_16_153
*341 FILLER_16_165
*342 FILLER_16_177
*343 FILLER_16_189
*344 FILLER_16_195
*345 FILLER_16_197
*346 FILLER_16_209
*347 FILLER_16_221
*348 FILLER_16_233
*349 FILLER_16_245
*350 FILLER_16_251
*351 FILLER_16_253
*352 FILLER_16_265
*353 FILLER_16_27
*354 FILLER_16_277
*355 FILLER_16_289
*356 FILLER_16_29
*357 FILLER_16_3
*358 FILLER_16_301
*359 FILLER_16_307
*360 FILLER_16_309
*361 FILLER_16_321
*362 FILLER_16_333
*363 FILLER_16_345
*364 FILLER_16_357
*365 FILLER_16_363
*366 FILLER_16_365
*367 FILLER_16_377
*368 FILLER_16_389
*369 FILLER_16_401
*370 FILLER_16_41
*371 FILLER_16_53
*372 FILLER_16_65
*373 FILLER_16_77
*374 FILLER_16_83
*375 FILLER_16_85
*376 FILLER_16_97
*377 FILLER_17_105
*378 FILLER_17_111
*379 FILLER_17_113
*380 FILLER_17_125
*381 FILLER_17_137
*382 FILLER_17_149
*383 FILLER_17_15
*384 FILLER_17_161
*385 FILLER_17_167
*386 FILLER_17_169
*387 FILLER_17_181
*388 FILLER_17_193
*389 FILLER_17_205
*390 FILLER_17_217
*391 FILLER_17_223
*392 FILLER_17_225
*393 FILLER_17_237
*394 FILLER_17_249
*395 FILLER_17_261
*396 FILLER_17_27
*397 FILLER_17_273
*398 FILLER_17_279
*399 FILLER_17_281
*400 FILLER_17_293
*401 FILLER_17_3
*402 FILLER_17_305
*403 FILLER_17_317
*404 FILLER_17_329
*405 FILLER_17_335
*406 FILLER_17_337
*407 FILLER_17_349
*408 FILLER_17_361
*409 FILLER_17_373
*410 FILLER_17_385
*411 FILLER_17_39
*412 FILLER_17_391
*413 FILLER_17_393
*414 FILLER_17_405
*415 FILLER_17_51
*416 FILLER_17_55
*417 FILLER_17_57
*418 FILLER_17_69
*419 FILLER_17_81
*420 FILLER_17_93
*421 FILLER_18_109
*422 FILLER_18_121
*423 FILLER_18_133
*424 FILLER_18_139
*425 FILLER_18_141
*426 FILLER_18_15
*427 FILLER_18_153
*428 FILLER_18_165
*429 FILLER_18_177
*430 FILLER_18_189
*431 FILLER_18_195
*432 FILLER_18_197
*433 FILLER_18_209
*434 FILLER_18_221
*435 FILLER_18_233
*436 FILLER_18_245
*437 FILLER_18_251
*438 FILLER_18_253
*439 FILLER_18_265
*440 FILLER_18_27
*441 FILLER_18_277
*442 FILLER_18_289
*443 FILLER_18_29
*444 FILLER_18_3
*445 FILLER_18_301
*446 FILLER_18_307
*447 FILLER_18_309
*448 FILLER_18_321
*449 FILLER_18_333
*450 FILLER_18_345
*451 FILLER_18_357
*452 FILLER_18_363
*453 FILLER_18_365
*454 FILLER_18_377
*455 FILLER_18_389
*456 FILLER_18_401
*457 FILLER_18_41
*458 FILLER_18_53
*459 FILLER_18_65
*460 FILLER_18_77
*461 FILLER_18_83
*462 FILLER_18_85
*463 FILLER_18_97
*464 FILLER_19_105
*465 FILLER_19_111
*466 FILLER_19_113
*467 FILLER_19_125
*468 FILLER_19_137
*469 FILLER_19_149
*470 FILLER_19_15
*471 FILLER_19_161
*472 FILLER_19_167
*473 FILLER_19_169
*474 FILLER_19_181
*475 FILLER_19_193
*476 FILLER_19_205
*477 FILLER_19_217
*478 FILLER_19_223
*479 FILLER_19_225
*480 FILLER_19_237
*481 FILLER_19_249
*482 FILLER_19_261
*483 FILLER_19_27
*484 FILLER_19_273
*485 FILLER_19_279
*486 FILLER_19_281
*487 FILLER_19_293
*488 FILLER_19_3
*489 FILLER_19_305
*490 FILLER_19_317
*491 FILLER_19_329
*492 FILLER_19_335
*493 FILLER_19_337
*494 FILLER_19_349
*495 FILLER_19_361
*496 FILLER_19_373
*497 FILLER_19_385
*498 FILLER_19_39
*499 FILLER_19_391
*500 FILLER_19_393
*501 FILLER_19_405
*502 FILLER_19_51
*503 FILLER_19_55
*504 FILLER_19_57
*505 FILLER_19_69
*506 FILLER_19_81
*507 FILLER_19_93
*508 FILLER_1_105
*509 FILLER_1_111
*510 FILLER_1_113
*511 FILLER_1_125
*512 FILLER_1_137
*513 FILLER_1_149
*514 FILLER_1_15
*515 FILLER_1_161
*516 FILLER_1_167
*517 FILLER_1_169
*518 FILLER_1_181
*519 FILLER_1_193
*520 FILLER_1_205
*521 FILLER_1_217
*522 FILLER_1_223
*523 FILLER_1_225
*524 FILLER_1_237
*525 FILLER_1_249
*526 FILLER_1_261
*527 FILLER_1_27
*528 FILLER_1_273
*529 FILLER_1_279
*530 FILLER_1_281
*531 FILLER_1_293
*532 FILLER_1_3
*533 FILLER_1_305
*534 FILLER_1_317
*535 FILLER_1_329
*536 FILLER_1_335
*537 FILLER_1_337
*538 FILLER_1_349
*539 FILLER_1_361
*540 FILLER_1_373
*541 FILLER_1_385
*542 FILLER_1_39
*543 FILLER_1_391
*544 FILLER_1_393
*545 FILLER_1_405
*546 FILLER_1_51
*547 FILLER_1_55
*548 FILLER_1_57
*549 FILLER_1_69
*550 FILLER_1_81
*551 FILLER_1_93
*552 FILLER_20_109
*553 FILLER_20_121
*554 FILLER_20_133
*555 FILLER_20_139
*556 FILLER_20_141
*557 FILLER_20_15
*558 FILLER_20_153
*559 FILLER_20_165
*560 FILLER_20_177
*561 FILLER_20_189
*562 FILLER_20_195
*563 FILLER_20_197
*564 FILLER_20_209
*565 FILLER_20_221
*566 FILLER_20_233
*567 FILLER_20_245
*568 FILLER_20_251
*569 FILLER_20_253
*570 FILLER_20_265
*571 FILLER_20_27
*572 FILLER_20_277
*573 FILLER_20_289
*574 FILLER_20_29
*575 FILLER_20_3
*576 FILLER_20_301
*577 FILLER_20_307
*578 FILLER_20_309
*579 FILLER_20_321
*580 FILLER_20_333
*581 FILLER_20_345
*582 FILLER_20_357
*583 FILLER_20_363
*584 FILLER_20_365
*585 FILLER_20_377
*586 FILLER_20_389
*587 FILLER_20_401
*588 FILLER_20_41
*589 FILLER_20_53
*590 FILLER_20_65
*591 FILLER_20_77
*592 FILLER_20_83
*593 FILLER_20_85
*594 FILLER_20_97
*595 FILLER_21_105
*596 FILLER_21_111
*597 FILLER_21_113
*598 FILLER_21_125
*599 FILLER_21_137
*600 FILLER_21_149
*601 FILLER_21_15
*602 FILLER_21_161
*603 FILLER_21_167
*604 FILLER_21_169
*605 FILLER_21_181
*606 FILLER_21_193
*607 FILLER_21_205
*608 FILLER_21_217
*609 FILLER_21_223
*610 FILLER_21_225
*611 FILLER_21_237
*612 FILLER_21_249
*613 FILLER_21_261
*614 FILLER_21_27
*615 FILLER_21_273
*616 FILLER_21_279
*617 FILLER_21_281
*618 FILLER_21_293
*619 FILLER_21_3
*620 FILLER_21_305
*621 FILLER_21_317
*622 FILLER_21_329
*623 FILLER_21_335
*624 FILLER_21_337
*625 FILLER_21_349
*626 FILLER_21_361
*627 FILLER_21_373
*628 FILLER_21_385
*629 FILLER_21_39
*630 FILLER_21_391
*631 FILLER_21_393
*632 FILLER_21_405
*633 FILLER_21_51
*634 FILLER_21_55
*635 FILLER_21_57
*636 FILLER_21_69
*637 FILLER_21_81
*638 FILLER_21_93
*639 FILLER_22_109
*640 FILLER_22_121
*641 FILLER_22_133
*642 FILLER_22_139
*643 FILLER_22_141
*644 FILLER_22_15
*645 FILLER_22_153
*646 FILLER_22_165
*647 FILLER_22_177
*648 FILLER_22_189
*649 FILLER_22_195
*650 FILLER_22_197
*651 FILLER_22_209
*652 FILLER_22_221
*653 FILLER_22_233
*654 FILLER_22_245
*655 FILLER_22_251
*656 FILLER_22_253
*657 FILLER_22_265
*658 FILLER_22_27
*659 FILLER_22_277
*660 FILLER_22_289
*661 FILLER_22_29
*662 FILLER_22_3
*663 FILLER_22_301
*664 FILLER_22_307
*665 FILLER_22_309
*666 FILLER_22_321
*667 FILLER_22_333
*668 FILLER_22_345
*669 FILLER_22_357
*670 FILLER_22_363
*671 FILLER_22_365
*672 FILLER_22_377
*673 FILLER_22_389
*674 FILLER_22_401
*675 FILLER_22_41
*676 FILLER_22_53
*677 FILLER_22_65
*678 FILLER_22_77
*679 FILLER_22_83
*680 FILLER_22_85
*681 FILLER_22_97
*682 FILLER_23_105
*683 FILLER_23_111
*684 FILLER_23_113
*685 FILLER_23_125
*686 FILLER_23_137
*687 FILLER_23_149
*688 FILLER_23_15
*689 FILLER_23_161
*690 FILLER_23_167
*691 FILLER_23_169
*692 FILLER_23_181
*693 FILLER_23_193
*694 FILLER_23_205
*695 FILLER_23_217
*696 FILLER_23_223
*697 FILLER_23_225
*698 FILLER_23_237
*699 FILLER_23_249
*700 FILLER_23_261
*701 FILLER_23_27
*702 FILLER_23_273
*703 FILLER_23_279
*704 FILLER_23_281
*705 FILLER_23_293
*706 FILLER_23_3
*707 FILLER_23_305
*708 FILLER_23_317
*709 FILLER_23_329
*710 FILLER_23_335
*711 FILLER_23_337
*712 FILLER_23_349
*713 FILLER_23_361
*714 FILLER_23_373
*715 FILLER_23_385
*716 FILLER_23_39
*717 FILLER_23_391
*718 FILLER_23_393
*719 FILLER_23_405
*720 FILLER_23_51
*721 FILLER_23_55
*722 FILLER_23_57
*723 FILLER_23_69
*724 FILLER_23_81
*725 FILLER_23_93
*726 FILLER_24_109
*727 FILLER_24_121
*728 FILLER_24_133
*729 FILLER_24_139
*730 FILLER_24_141
*731 FILLER_24_15
*732 FILLER_24_153
*733 FILLER_24_165
*734 FILLER_24_177
*735 FILLER_24_189
*736 FILLER_24_195
*737 FILLER_24_197
*738 FILLER_24_209
*739 FILLER_24_221
*740 FILLER_24_233
*741 FILLER_24_245
*742 FILLER_24_251
*743 FILLER_24_253
*744 FILLER_24_265
*745 FILLER_24_27
*746 FILLER_24_277
*747 FILLER_24_289
*748 FILLER_24_29
*749 FILLER_24_3
*750 FILLER_24_301
*751 FILLER_24_307
*752 FILLER_24_309
*753 FILLER_24_321
*754 FILLER_24_333
*755 FILLER_24_345
*756 FILLER_24_357
*757 FILLER_24_363
*758 FILLER_24_365
*759 FILLER_24_377
*760 FILLER_24_389
*761 FILLER_24_401
*762 FILLER_24_41
*763 FILLER_24_53
*764 FILLER_24_65
*765 FILLER_24_77
*766 FILLER_24_83
*767 FILLER_24_85
*768 FILLER_24_97
*769 FILLER_25_105
*770 FILLER_25_111
*771 FILLER_25_113
*772 FILLER_25_125
*773 FILLER_25_137
*774 FILLER_25_149
*775 FILLER_25_15
*776 FILLER_25_161
*777 FILLER_25_167
*778 FILLER_25_169
*779 FILLER_25_181
*780 FILLER_25_193
*781 FILLER_25_205
*782 FILLER_25_217
*783 FILLER_25_223
*784 FILLER_25_225
*785 FILLER_25_237
*786 FILLER_25_249
*787 FILLER_25_261
*788 FILLER_25_27
*789 FILLER_25_273
*790 FILLER_25_279
*791 FILLER_25_281
*792 FILLER_25_293
*793 FILLER_25_3
*794 FILLER_25_305
*795 FILLER_25_317
*796 FILLER_25_329
*797 FILLER_25_335
*798 FILLER_25_337
*799 FILLER_25_349
*800 FILLER_25_361
*801 FILLER_25_373
*802 FILLER_25_385
*803 FILLER_25_39
*804 FILLER_25_391
*805 FILLER_25_393
*806 FILLER_25_405
*807 FILLER_25_51
*808 FILLER_25_55
*809 FILLER_25_57
*810 FILLER_25_69
*811 FILLER_25_81
*812 FILLER_25_93
*813 FILLER_26_109
*814 FILLER_26_121
*815 FILLER_26_133
*816 FILLER_26_139
*817 FILLER_26_141
*818 FILLER_26_15
*819 FILLER_26_153
*820 FILLER_26_165
*821 FILLER_26_177
*822 FILLER_26_189
*823 FILLER_26_195
*824 FILLER_26_197
*825 FILLER_26_209
*826 FILLER_26_221
*827 FILLER_26_233
*828 FILLER_26_245
*829 FILLER_26_251
*830 FILLER_26_253
*831 FILLER_26_265
*832 FILLER_26_27
*833 FILLER_26_277
*834 FILLER_26_289
*835 FILLER_26_29
*836 FILLER_26_3
*837 FILLER_26_301
*838 FILLER_26_307
*839 FILLER_26_309
*840 FILLER_26_321
*841 FILLER_26_333
*842 FILLER_26_345
*843 FILLER_26_357
*844 FILLER_26_363
*845 FILLER_26_365
*846 FILLER_26_377
*847 FILLER_26_389
*848 FILLER_26_401
*849 FILLER_26_41
*850 FILLER_26_53
*851 FILLER_26_65
*852 FILLER_26_77
*853 FILLER_26_83
*854 FILLER_26_85
*855 FILLER_26_97
*856 FILLER_27_105
*857 FILLER_27_111
*858 FILLER_27_113
*859 FILLER_27_125
*860 FILLER_27_137
*861 FILLER_27_149
*862 FILLER_27_15
*863 FILLER_27_161
*864 FILLER_27_167
*865 FILLER_27_169
*866 FILLER_27_181
*867 FILLER_27_193
*868 FILLER_27_205
*869 FILLER_27_217
*870 FILLER_27_223
*871 FILLER_27_225
*872 FILLER_27_237
*873 FILLER_27_249
*874 FILLER_27_261
*875 FILLER_27_27
*876 FILLER_27_273
*877 FILLER_27_279
*878 FILLER_27_281
*879 FILLER_27_293
*880 FILLER_27_3
*881 FILLER_27_305
*882 FILLER_27_317
*883 FILLER_27_329
*884 FILLER_27_335
*885 FILLER_27_337
*886 FILLER_27_349
*887 FILLER_27_361
*888 FILLER_27_369
*889 FILLER_27_39
*890 FILLER_27_393
*891 FILLER_27_405
*892 FILLER_27_51
*893 FILLER_27_55
*894 FILLER_27_57
*895 FILLER_27_69
*896 FILLER_27_81
*897 FILLER_27_93
*898 FILLER_28_109
*899 FILLER_28_121
*900 FILLER_28_133
*901 FILLER_28_139
*902 FILLER_28_141
*903 FILLER_28_15
*904 FILLER_28_153
*905 FILLER_28_165
*906 FILLER_28_177
*907 FILLER_28_189
*908 FILLER_28_195
*909 FILLER_28_197
*910 FILLER_28_209
*911 FILLER_28_221
*912 FILLER_28_233
*913 FILLER_28_245
*914 FILLER_28_251
*915 FILLER_28_253
*916 FILLER_28_265
*917 FILLER_28_27
*918 FILLER_28_277
*919 FILLER_28_289
*920 FILLER_28_29
*921 FILLER_28_3
*922 FILLER_28_301
*923 FILLER_28_307
*924 FILLER_28_309
*925 FILLER_28_321
*926 FILLER_28_333
*927 FILLER_28_345
*928 FILLER_28_357
*929 FILLER_28_363
*930 FILLER_28_365
*931 FILLER_28_377
*932 FILLER_28_401
*933 FILLER_28_41
*934 FILLER_28_53
*935 FILLER_28_65
*936 FILLER_28_77
*937 FILLER_28_83
*938 FILLER_28_85
*939 FILLER_28_97
*940 FILLER_29_105
*941 FILLER_29_111
*942 FILLER_29_113
*943 FILLER_29_125
*944 FILLER_29_137
*945 FILLER_29_149
*946 FILLER_29_15
*947 FILLER_29_161
*948 FILLER_29_167
*949 FILLER_29_169
*950 FILLER_29_181
*951 FILLER_29_193
*952 FILLER_29_205
*953 FILLER_29_217
*954 FILLER_29_223
*955 FILLER_29_225
*956 FILLER_29_237
*957 FILLER_29_249
*958 FILLER_29_261
*959 FILLER_29_27
*960 FILLER_29_273
*961 FILLER_29_279
*962 FILLER_29_281
*963 FILLER_29_293
*964 FILLER_29_3
*965 FILLER_29_305
*966 FILLER_29_317
*967 FILLER_29_329
*968 FILLER_29_335
*969 FILLER_29_337
*970 FILLER_29_349
*971 FILLER_29_361
*972 FILLER_29_373
*973 FILLER_29_381
*974 FILLER_29_39
*975 FILLER_29_393
*976 FILLER_29_51
*977 FILLER_29_55
*978 FILLER_29_57
*979 FILLER_29_69
*980 FILLER_29_81
*981 FILLER_29_93
*982 FILLER_2_109
*983 FILLER_2_121
*984 FILLER_2_133
*985 FILLER_2_139
*986 FILLER_2_141
*987 FILLER_2_15
*988 FILLER_2_153
*989 FILLER_2_165
*990 FILLER_2_177
*991 FILLER_2_189
*992 FILLER_2_195
*993 FILLER_2_197
*994 FILLER_2_209
*995 FILLER_2_221
*996 FILLER_2_233
*997 FILLER_2_245
*998 FILLER_2_251
*999 FILLER_2_253
*1000 FILLER_2_265
*1001 FILLER_2_27
*1002 FILLER_2_277
*1003 FILLER_2_289
*1004 FILLER_2_29
*1005 FILLER_2_3
*1006 FILLER_2_301
*1007 FILLER_2_307
*1008 FILLER_2_309
*1009 FILLER_2_321
*1010 FILLER_2_333
*1011 FILLER_2_345
*1012 FILLER_2_357
*1013 FILLER_2_363
*1014 FILLER_2_365
*1015 FILLER_2_377
*1016 FILLER_2_389
*1017 FILLER_2_401
*1018 FILLER_2_41
*1019 FILLER_2_53
*1020 FILLER_2_65
*1021 FILLER_2_77
*1022 FILLER_2_83
*1023 FILLER_2_85
*1024 FILLER_2_97
*1025 FILLER_30_109
*1026 FILLER_30_121
*1027 FILLER_30_133
*1028 FILLER_30_139
*1029 FILLER_30_141
*1030 FILLER_30_15
*1031 FILLER_30_153
*1032 FILLER_30_165
*1033 FILLER_30_177
*1034 FILLER_30_189
*1035 FILLER_30_195
*1036 FILLER_30_197
*1037 FILLER_30_209
*1038 FILLER_30_221
*1039 FILLER_30_233
*1040 FILLER_30_245
*1041 FILLER_30_251
*1042 FILLER_30_253
*1043 FILLER_30_265
*1044 FILLER_30_27
*1045 FILLER_30_277
*1046 FILLER_30_289
*1047 FILLER_30_29
*1048 FILLER_30_3
*1049 FILLER_30_301
*1050 FILLER_30_307
*1051 FILLER_30_309
*1052 FILLER_30_321
*1053 FILLER_30_333
*1054 FILLER_30_345
*1055 FILLER_30_357
*1056 FILLER_30_363
*1057 FILLER_30_365
*1058 FILLER_30_373
*1059 FILLER_30_405
*1060 FILLER_30_41
*1061 FILLER_30_53
*1062 FILLER_30_65
*1063 FILLER_30_77
*1064 FILLER_30_83
*1065 FILLER_30_85
*1066 FILLER_30_97
*1067 FILLER_31_105
*1068 FILLER_31_111
*1069 FILLER_31_113
*1070 FILLER_31_125
*1071 FILLER_31_137
*1072 FILLER_31_149
*1073 FILLER_31_15
*1074 FILLER_31_161
*1075 FILLER_31_167
*1076 FILLER_31_169
*1077 FILLER_31_181
*1078 FILLER_31_193
*1079 FILLER_31_205
*1080 FILLER_31_217
*1081 FILLER_31_223
*1082 FILLER_31_225
*1083 FILLER_31_237
*1084 FILLER_31_249
*1085 FILLER_31_261
*1086 FILLER_31_27
*1087 FILLER_31_273
*1088 FILLER_31_279
*1089 FILLER_31_281
*1090 FILLER_31_293
*1091 FILLER_31_3
*1092 FILLER_31_305
*1093 FILLER_31_317
*1094 FILLER_31_329
*1095 FILLER_31_335
*1096 FILLER_31_337
*1097 FILLER_31_349
*1098 FILLER_31_361
*1099 FILLER_31_369
*1100 FILLER_31_39
*1101 FILLER_31_405
*1102 FILLER_31_51
*1103 FILLER_31_55
*1104 FILLER_31_57
*1105 FILLER_31_69
*1106 FILLER_31_81
*1107 FILLER_31_93
*1108 FILLER_32_109
*1109 FILLER_32_121
*1110 FILLER_32_133
*1111 FILLER_32_139
*1112 FILLER_32_141
*1113 FILLER_32_15
*1114 FILLER_32_153
*1115 FILLER_32_165
*1116 FILLER_32_177
*1117 FILLER_32_189
*1118 FILLER_32_195
*1119 FILLER_32_197
*1120 FILLER_32_209
*1121 FILLER_32_221
*1122 FILLER_32_233
*1123 FILLER_32_245
*1124 FILLER_32_251
*1125 FILLER_32_253
*1126 FILLER_32_265
*1127 FILLER_32_27
*1128 FILLER_32_277
*1129 FILLER_32_289
*1130 FILLER_32_29
*1131 FILLER_32_3
*1132 FILLER_32_301
*1133 FILLER_32_307
*1134 FILLER_32_309
*1135 FILLER_32_321
*1136 FILLER_32_333
*1137 FILLER_32_345
*1138 FILLER_32_357
*1139 FILLER_32_363
*1140 FILLER_32_365
*1141 FILLER_32_373
*1142 FILLER_32_405
*1143 FILLER_32_41
*1144 FILLER_32_53
*1145 FILLER_32_65
*1146 FILLER_32_77
*1147 FILLER_32_83
*1148 FILLER_32_85
*1149 FILLER_32_97
*1150 FILLER_33_105
*1151 FILLER_33_111
*1152 FILLER_33_113
*1153 FILLER_33_125
*1154 FILLER_33_137
*1155 FILLER_33_149
*1156 FILLER_33_15
*1157 FILLER_33_161
*1158 FILLER_33_167
*1159 FILLER_33_169
*1160 FILLER_33_181
*1161 FILLER_33_193
*1162 FILLER_33_205
*1163 FILLER_33_217
*1164 FILLER_33_223
*1165 FILLER_33_225
*1166 FILLER_33_237
*1167 FILLER_33_249
*1168 FILLER_33_261
*1169 FILLER_33_27
*1170 FILLER_33_273
*1171 FILLER_33_279
*1172 FILLER_33_281
*1173 FILLER_33_293
*1174 FILLER_33_3
*1175 FILLER_33_305
*1176 FILLER_33_317
*1177 FILLER_33_329
*1178 FILLER_33_335
*1179 FILLER_33_337
*1180 FILLER_33_349
*1181 FILLER_33_361
*1182 FILLER_33_373
*1183 FILLER_33_381
*1184 FILLER_33_39
*1185 FILLER_33_406
*1186 FILLER_33_51
*1187 FILLER_33_55
*1188 FILLER_33_57
*1189 FILLER_33_69
*1190 FILLER_33_81
*1191 FILLER_33_93
*1192 FILLER_34_109
*1193 FILLER_34_121
*1194 FILLER_34_133
*1195 FILLER_34_139
*1196 FILLER_34_141
*1197 FILLER_34_15
*1198 FILLER_34_153
*1199 FILLER_34_165
*1200 FILLER_34_177
*1201 FILLER_34_189
*1202 FILLER_34_195
*1203 FILLER_34_197
*1204 FILLER_34_209
*1205 FILLER_34_221
*1206 FILLER_34_233
*1207 FILLER_34_245
*1208 FILLER_34_251
*1209 FILLER_34_253
*1210 FILLER_34_265
*1211 FILLER_34_27
*1212 FILLER_34_277
*1213 FILLER_34_289
*1214 FILLER_34_29
*1215 FILLER_34_3
*1216 FILLER_34_301
*1217 FILLER_34_307
*1218 FILLER_34_309
*1219 FILLER_34_321
*1220 FILLER_34_333
*1221 FILLER_34_345
*1222 FILLER_34_357
*1223 FILLER_34_363
*1224 FILLER_34_365
*1225 FILLER_34_377
*1226 FILLER_34_401
*1227 FILLER_34_41
*1228 FILLER_34_53
*1229 FILLER_34_65
*1230 FILLER_34_77
*1231 FILLER_34_83
*1232 FILLER_34_85
*1233 FILLER_34_97
*1234 FILLER_35_105
*1235 FILLER_35_111
*1236 FILLER_35_113
*1237 FILLER_35_125
*1238 FILLER_35_137
*1239 FILLER_35_149
*1240 FILLER_35_15
*1241 FILLER_35_161
*1242 FILLER_35_167
*1243 FILLER_35_169
*1244 FILLER_35_181
*1245 FILLER_35_193
*1246 FILLER_35_205
*1247 FILLER_35_217
*1248 FILLER_35_223
*1249 FILLER_35_225
*1250 FILLER_35_237
*1251 FILLER_35_249
*1252 FILLER_35_261
*1253 FILLER_35_27
*1254 FILLER_35_273
*1255 FILLER_35_279
*1256 FILLER_35_281
*1257 FILLER_35_293
*1258 FILLER_35_3
*1259 FILLER_35_305
*1260 FILLER_35_317
*1261 FILLER_35_329
*1262 FILLER_35_335
*1263 FILLER_35_337
*1264 FILLER_35_349
*1265 FILLER_35_361
*1266 FILLER_35_373
*1267 FILLER_35_385
*1268 FILLER_35_39
*1269 FILLER_35_391
*1270 FILLER_35_393
*1271 FILLER_35_51
*1272 FILLER_35_55
*1273 FILLER_35_57
*1274 FILLER_35_69
*1275 FILLER_35_81
*1276 FILLER_35_93
*1277 FILLER_36_109
*1278 FILLER_36_121
*1279 FILLER_36_133
*1280 FILLER_36_139
*1281 FILLER_36_141
*1282 FILLER_36_15
*1283 FILLER_36_153
*1284 FILLER_36_165
*1285 FILLER_36_177
*1286 FILLER_36_189
*1287 FILLER_36_195
*1288 FILLER_36_197
*1289 FILLER_36_209
*1290 FILLER_36_221
*1291 FILLER_36_233
*1292 FILLER_36_245
*1293 FILLER_36_251
*1294 FILLER_36_253
*1295 FILLER_36_265
*1296 FILLER_36_27
*1297 FILLER_36_277
*1298 FILLER_36_289
*1299 FILLER_36_29
*1300 FILLER_36_3
*1301 FILLER_36_301
*1302 FILLER_36_307
*1303 FILLER_36_309
*1304 FILLER_36_321
*1305 FILLER_36_333
*1306 FILLER_36_345
*1307 FILLER_36_357
*1308 FILLER_36_363
*1309 FILLER_36_365
*1310 FILLER_36_377
*1311 FILLER_36_385
*1312 FILLER_36_41
*1313 FILLER_36_53
*1314 FILLER_36_65
*1315 FILLER_36_77
*1316 FILLER_36_83
*1317 FILLER_36_85
*1318 FILLER_36_97
*1319 FILLER_37_105
*1320 FILLER_37_111
*1321 FILLER_37_113
*1322 FILLER_37_125
*1323 FILLER_37_137
*1324 FILLER_37_149
*1325 FILLER_37_15
*1326 FILLER_37_161
*1327 FILLER_37_167
*1328 FILLER_37_169
*1329 FILLER_37_181
*1330 FILLER_37_193
*1331 FILLER_37_205
*1332 FILLER_37_217
*1333 FILLER_37_223
*1334 FILLER_37_225
*1335 FILLER_37_237
*1336 FILLER_37_249
*1337 FILLER_37_261
*1338 FILLER_37_27
*1339 FILLER_37_273
*1340 FILLER_37_279
*1341 FILLER_37_281
*1342 FILLER_37_293
*1343 FILLER_37_3
*1344 FILLER_37_305
*1345 FILLER_37_317
*1346 FILLER_37_329
*1347 FILLER_37_335
*1348 FILLER_37_337
*1349 FILLER_37_349
*1350 FILLER_37_361
*1351 FILLER_37_373
*1352 FILLER_37_385
*1353 FILLER_37_39
*1354 FILLER_37_391
*1355 FILLER_37_393
*1356 FILLER_37_405
*1357 FILLER_37_51
*1358 FILLER_37_55
*1359 FILLER_37_57
*1360 FILLER_37_69
*1361 FILLER_37_81
*1362 FILLER_37_93
*1363 FILLER_38_109
*1364 FILLER_38_121
*1365 FILLER_38_133
*1366 FILLER_38_139
*1367 FILLER_38_141
*1368 FILLER_38_15
*1369 FILLER_38_153
*1370 FILLER_38_165
*1371 FILLER_38_177
*1372 FILLER_38_189
*1373 FILLER_38_195
*1374 FILLER_38_197
*1375 FILLER_38_209
*1376 FILLER_38_221
*1377 FILLER_38_233
*1378 FILLER_38_245
*1379 FILLER_38_251
*1380 FILLER_38_253
*1381 FILLER_38_265
*1382 FILLER_38_27
*1383 FILLER_38_277
*1384 FILLER_38_289
*1385 FILLER_38_29
*1386 FILLER_38_3
*1387 FILLER_38_301
*1388 FILLER_38_307
*1389 FILLER_38_309
*1390 FILLER_38_321
*1391 FILLER_38_333
*1392 FILLER_38_345
*1393 FILLER_38_357
*1394 FILLER_38_363
*1395 FILLER_38_365
*1396 FILLER_38_377
*1397 FILLER_38_389
*1398 FILLER_38_401
*1399 FILLER_38_41
*1400 FILLER_38_53
*1401 FILLER_38_65
*1402 FILLER_38_77
*1403 FILLER_38_83
*1404 FILLER_38_85
*1405 FILLER_38_97
*1406 FILLER_39_105
*1407 FILLER_39_111
*1408 FILLER_39_113
*1409 FILLER_39_125
*1410 FILLER_39_137
*1411 FILLER_39_149
*1412 FILLER_39_15
*1413 FILLER_39_161
*1414 FILLER_39_167
*1415 FILLER_39_169
*1416 FILLER_39_181
*1417 FILLER_39_193
*1418 FILLER_39_205
*1419 FILLER_39_217
*1420 FILLER_39_223
*1421 FILLER_39_225
*1422 FILLER_39_237
*1423 FILLER_39_249
*1424 FILLER_39_261
*1425 FILLER_39_27
*1426 FILLER_39_273
*1427 FILLER_39_279
*1428 FILLER_39_281
*1429 FILLER_39_293
*1430 FILLER_39_3
*1431 FILLER_39_305
*1432 FILLER_39_317
*1433 FILLER_39_329
*1434 FILLER_39_335
*1435 FILLER_39_337
*1436 FILLER_39_349
*1437 FILLER_39_361
*1438 FILLER_39_373
*1439 FILLER_39_385
*1440 FILLER_39_39
*1441 FILLER_39_391
*1442 FILLER_39_393
*1443 FILLER_39_405
*1444 FILLER_39_51
*1445 FILLER_39_55
*1446 FILLER_39_57
*1447 FILLER_39_69
*1448 FILLER_39_81
*1449 FILLER_39_93
*1450 FILLER_3_105
*1451 FILLER_3_111
*1452 FILLER_3_113
*1453 FILLER_3_125
*1454 FILLER_3_137
*1455 FILLER_3_149
*1456 FILLER_3_15
*1457 FILLER_3_161
*1458 FILLER_3_167
*1459 FILLER_3_169
*1460 FILLER_3_181
*1461 FILLER_3_193
*1462 FILLER_3_205
*1463 FILLER_3_217
*1464 FILLER_3_223
*1465 FILLER_3_225
*1466 FILLER_3_237
*1467 FILLER_3_249
*1468 FILLER_3_261
*1469 FILLER_3_27
*1470 FILLER_3_273
*1471 FILLER_3_279
*1472 FILLER_3_281
*1473 FILLER_3_293
*1474 FILLER_3_3
*1475 FILLER_3_305
*1476 FILLER_3_317
*1477 FILLER_3_329
*1478 FILLER_3_335
*1479 FILLER_3_337
*1480 FILLER_3_349
*1481 FILLER_3_361
*1482 FILLER_3_373
*1483 FILLER_3_385
*1484 FILLER_3_39
*1485 FILLER_3_391
*1486 FILLER_3_393
*1487 FILLER_3_405
*1488 FILLER_3_51
*1489 FILLER_3_55
*1490 FILLER_3_57
*1491 FILLER_3_69
*1492 FILLER_3_81
*1493 FILLER_3_93
*1494 FILLER_40_109
*1495 FILLER_40_121
*1496 FILLER_40_133
*1497 FILLER_40_139
*1498 FILLER_40_141
*1499 FILLER_40_15
*1500 FILLER_40_153
*1501 FILLER_40_165
*1502 FILLER_40_177
*1503 FILLER_40_189
*1504 FILLER_40_195
*1505 FILLER_40_197
*1506 FILLER_40_209
*1507 FILLER_40_221
*1508 FILLER_40_233
*1509 FILLER_40_245
*1510 FILLER_40_251
*1511 FILLER_40_253
*1512 FILLER_40_265
*1513 FILLER_40_27
*1514 FILLER_40_277
*1515 FILLER_40_289
*1516 FILLER_40_29
*1517 FILLER_40_3
*1518 FILLER_40_301
*1519 FILLER_40_307
*1520 FILLER_40_309
*1521 FILLER_40_321
*1522 FILLER_40_333
*1523 FILLER_40_345
*1524 FILLER_40_357
*1525 FILLER_40_363
*1526 FILLER_40_365
*1527 FILLER_40_377
*1528 FILLER_40_389
*1529 FILLER_40_401
*1530 FILLER_40_41
*1531 FILLER_40_53
*1532 FILLER_40_65
*1533 FILLER_40_77
*1534 FILLER_40_83
*1535 FILLER_40_85
*1536 FILLER_40_97
*1537 FILLER_41_105
*1538 FILLER_41_111
*1539 FILLER_41_113
*1540 FILLER_41_125
*1541 FILLER_41_137
*1542 FILLER_41_149
*1543 FILLER_41_15
*1544 FILLER_41_161
*1545 FILLER_41_167
*1546 FILLER_41_169
*1547 FILLER_41_181
*1548 FILLER_41_193
*1549 FILLER_41_205
*1550 FILLER_41_217
*1551 FILLER_41_223
*1552 FILLER_41_225
*1553 FILLER_41_237
*1554 FILLER_41_249
*1555 FILLER_41_261
*1556 FILLER_41_27
*1557 FILLER_41_273
*1558 FILLER_41_279
*1559 FILLER_41_281
*1560 FILLER_41_293
*1561 FILLER_41_3
*1562 FILLER_41_305
*1563 FILLER_41_317
*1564 FILLER_41_329
*1565 FILLER_41_335
*1566 FILLER_41_337
*1567 FILLER_41_349
*1568 FILLER_41_361
*1569 FILLER_41_373
*1570 FILLER_41_385
*1571 FILLER_41_39
*1572 FILLER_41_391
*1573 FILLER_41_393
*1574 FILLER_41_405
*1575 FILLER_41_51
*1576 FILLER_41_55
*1577 FILLER_41_57
*1578 FILLER_41_69
*1579 FILLER_41_81
*1580 FILLER_41_93
*1581 FILLER_42_109
*1582 FILLER_42_121
*1583 FILLER_42_133
*1584 FILLER_42_139
*1585 FILLER_42_141
*1586 FILLER_42_15
*1587 FILLER_42_153
*1588 FILLER_42_165
*1589 FILLER_42_177
*1590 FILLER_42_189
*1591 FILLER_42_195
*1592 FILLER_42_197
*1593 FILLER_42_209
*1594 FILLER_42_221
*1595 FILLER_42_233
*1596 FILLER_42_245
*1597 FILLER_42_251
*1598 FILLER_42_253
*1599 FILLER_42_265
*1600 FILLER_42_27
*1601 FILLER_42_277
*1602 FILLER_42_289
*1603 FILLER_42_29
*1604 FILLER_42_3
*1605 FILLER_42_301
*1606 FILLER_42_307
*1607 FILLER_42_309
*1608 FILLER_42_321
*1609 FILLER_42_333
*1610 FILLER_42_345
*1611 FILLER_42_357
*1612 FILLER_42_363
*1613 FILLER_42_365
*1614 FILLER_42_377
*1615 FILLER_42_389
*1616 FILLER_42_401
*1617 FILLER_42_41
*1618 FILLER_42_53
*1619 FILLER_42_65
*1620 FILLER_42_77
*1621 FILLER_42_83
*1622 FILLER_42_85
*1623 FILLER_42_97
*1624 FILLER_43_105
*1625 FILLER_43_111
*1626 FILLER_43_113
*1627 FILLER_43_125
*1628 FILLER_43_137
*1629 FILLER_43_149
*1630 FILLER_43_15
*1631 FILLER_43_161
*1632 FILLER_43_167
*1633 FILLER_43_169
*1634 FILLER_43_181
*1635 FILLER_43_193
*1636 FILLER_43_205
*1637 FILLER_43_217
*1638 FILLER_43_223
*1639 FILLER_43_225
*1640 FILLER_43_237
*1641 FILLER_43_249
*1642 FILLER_43_261
*1643 FILLER_43_27
*1644 FILLER_43_273
*1645 FILLER_43_279
*1646 FILLER_43_281
*1647 FILLER_43_293
*1648 FILLER_43_3
*1649 FILLER_43_305
*1650 FILLER_43_317
*1651 FILLER_43_329
*1652 FILLER_43_335
*1653 FILLER_43_337
*1654 FILLER_43_349
*1655 FILLER_43_361
*1656 FILLER_43_373
*1657 FILLER_43_385
*1658 FILLER_43_39
*1659 FILLER_43_391
*1660 FILLER_43_393
*1661 FILLER_43_405
*1662 FILLER_43_51
*1663 FILLER_43_55
*1664 FILLER_43_57
*1665 FILLER_43_69
*1666 FILLER_43_81
*1667 FILLER_43_93
*1668 FILLER_44_109
*1669 FILLER_44_121
*1670 FILLER_44_133
*1671 FILLER_44_139
*1672 FILLER_44_141
*1673 FILLER_44_15
*1674 FILLER_44_153
*1675 FILLER_44_165
*1676 FILLER_44_177
*1677 FILLER_44_189
*1678 FILLER_44_195
*1679 FILLER_44_197
*1680 FILLER_44_209
*1681 FILLER_44_221
*1682 FILLER_44_233
*1683 FILLER_44_245
*1684 FILLER_44_251
*1685 FILLER_44_253
*1686 FILLER_44_265
*1687 FILLER_44_27
*1688 FILLER_44_277
*1689 FILLER_44_289
*1690 FILLER_44_29
*1691 FILLER_44_3
*1692 FILLER_44_301
*1693 FILLER_44_307
*1694 FILLER_44_309
*1695 FILLER_44_321
*1696 FILLER_44_333
*1697 FILLER_44_345
*1698 FILLER_44_357
*1699 FILLER_44_363
*1700 FILLER_44_365
*1701 FILLER_44_377
*1702 FILLER_44_389
*1703 FILLER_44_401
*1704 FILLER_44_41
*1705 FILLER_44_53
*1706 FILLER_44_65
*1707 FILLER_44_77
*1708 FILLER_44_83
*1709 FILLER_44_85
*1710 FILLER_44_97
*1711 FILLER_45_105
*1712 FILLER_45_111
*1713 FILLER_45_113
*1714 FILLER_45_125
*1715 FILLER_45_137
*1716 FILLER_45_149
*1717 FILLER_45_15
*1718 FILLER_45_161
*1719 FILLER_45_167
*1720 FILLER_45_169
*1721 FILLER_45_181
*1722 FILLER_45_193
*1723 FILLER_45_205
*1724 FILLER_45_217
*1725 FILLER_45_223
*1726 FILLER_45_225
*1727 FILLER_45_237
*1728 FILLER_45_249
*1729 FILLER_45_261
*1730 FILLER_45_27
*1731 FILLER_45_273
*1732 FILLER_45_279
*1733 FILLER_45_281
*1734 FILLER_45_293
*1735 FILLER_45_3
*1736 FILLER_45_305
*1737 FILLER_45_317
*1738 FILLER_45_329
*1739 FILLER_45_335
*1740 FILLER_45_337
*1741 FILLER_45_349
*1742 FILLER_45_361
*1743 FILLER_45_373
*1744 FILLER_45_385
*1745 FILLER_45_39
*1746 FILLER_45_391
*1747 FILLER_45_393
*1748 FILLER_45_405
*1749 FILLER_45_51
*1750 FILLER_45_55
*1751 FILLER_45_57
*1752 FILLER_45_69
*1753 FILLER_45_81
*1754 FILLER_45_93
*1755 FILLER_46_109
*1756 FILLER_46_121
*1757 FILLER_46_133
*1758 FILLER_46_139
*1759 FILLER_46_141
*1760 FILLER_46_15
*1761 FILLER_46_153
*1762 FILLER_46_165
*1763 FILLER_46_177
*1764 FILLER_46_189
*1765 FILLER_46_195
*1766 FILLER_46_197
*1767 FILLER_46_209
*1768 FILLER_46_221
*1769 FILLER_46_233
*1770 FILLER_46_245
*1771 FILLER_46_251
*1772 FILLER_46_253
*1773 FILLER_46_265
*1774 FILLER_46_27
*1775 FILLER_46_277
*1776 FILLER_46_289
*1777 FILLER_46_29
*1778 FILLER_46_3
*1779 FILLER_46_301
*1780 FILLER_46_307
*1781 FILLER_46_309
*1782 FILLER_46_321
*1783 FILLER_46_333
*1784 FILLER_46_345
*1785 FILLER_46_357
*1786 FILLER_46_363
*1787 FILLER_46_365
*1788 FILLER_46_377
*1789 FILLER_46_389
*1790 FILLER_46_401
*1791 FILLER_46_41
*1792 FILLER_46_53
*1793 FILLER_46_65
*1794 FILLER_46_77
*1795 FILLER_46_83
*1796 FILLER_46_85
*1797 FILLER_46_97
*1798 FILLER_47_105
*1799 FILLER_47_111
*1800 FILLER_47_113
*1801 FILLER_47_125
*1802 FILLER_47_137
*1803 FILLER_47_149
*1804 FILLER_47_15
*1805 FILLER_47_161
*1806 FILLER_47_167
*1807 FILLER_47_169
*1808 FILLER_47_181
*1809 FILLER_47_193
*1810 FILLER_47_205
*1811 FILLER_47_217
*1812 FILLER_47_223
*1813 FILLER_47_225
*1814 FILLER_47_237
*1815 FILLER_47_249
*1816 FILLER_47_261
*1817 FILLER_47_27
*1818 FILLER_47_273
*1819 FILLER_47_279
*1820 FILLER_47_281
*1821 FILLER_47_293
*1822 FILLER_47_3
*1823 FILLER_47_305
*1824 FILLER_47_317
*1825 FILLER_47_329
*1826 FILLER_47_335
*1827 FILLER_47_337
*1828 FILLER_47_349
*1829 FILLER_47_361
*1830 FILLER_47_373
*1831 FILLER_47_385
*1832 FILLER_47_39
*1833 FILLER_47_391
*1834 FILLER_47_393
*1835 FILLER_47_405
*1836 FILLER_47_51
*1837 FILLER_47_55
*1838 FILLER_47_57
*1839 FILLER_47_69
*1840 FILLER_47_81
*1841 FILLER_47_93
*1842 FILLER_48_109
*1843 FILLER_48_121
*1844 FILLER_48_133
*1845 FILLER_48_139
*1846 FILLER_48_141
*1847 FILLER_48_15
*1848 FILLER_48_153
*1849 FILLER_48_165
*1850 FILLER_48_177
*1851 FILLER_48_189
*1852 FILLER_48_195
*1853 FILLER_48_197
*1854 FILLER_48_209
*1855 FILLER_48_221
*1856 FILLER_48_233
*1857 FILLER_48_245
*1858 FILLER_48_251
*1859 FILLER_48_253
*1860 FILLER_48_265
*1861 FILLER_48_27
*1862 FILLER_48_277
*1863 FILLER_48_289
*1864 FILLER_48_29
*1865 FILLER_48_3
*1866 FILLER_48_301
*1867 FILLER_48_307
*1868 FILLER_48_309
*1869 FILLER_48_321
*1870 FILLER_48_333
*1871 FILLER_48_345
*1872 FILLER_48_357
*1873 FILLER_48_363
*1874 FILLER_48_365
*1875 FILLER_48_377
*1876 FILLER_48_389
*1877 FILLER_48_401
*1878 FILLER_48_41
*1879 FILLER_48_53
*1880 FILLER_48_65
*1881 FILLER_48_77
*1882 FILLER_48_83
*1883 FILLER_48_85
*1884 FILLER_48_97
*1885 FILLER_49_105
*1886 FILLER_49_111
*1887 FILLER_49_113
*1888 FILLER_49_125
*1889 FILLER_49_137
*1890 FILLER_49_149
*1891 FILLER_49_15
*1892 FILLER_49_161
*1893 FILLER_49_167
*1894 FILLER_49_169
*1895 FILLER_49_181
*1896 FILLER_49_193
*1897 FILLER_49_205
*1898 FILLER_49_217
*1899 FILLER_49_223
*1900 FILLER_49_225
*1901 FILLER_49_237
*1902 FILLER_49_249
*1903 FILLER_49_261
*1904 FILLER_49_27
*1905 FILLER_49_273
*1906 FILLER_49_279
*1907 FILLER_49_281
*1908 FILLER_49_293
*1909 FILLER_49_3
*1910 FILLER_49_305
*1911 FILLER_49_317
*1912 FILLER_49_329
*1913 FILLER_49_335
*1914 FILLER_49_337
*1915 FILLER_49_349
*1916 FILLER_49_361
*1917 FILLER_49_373
*1918 FILLER_49_385
*1919 FILLER_49_39
*1920 FILLER_49_391
*1921 FILLER_49_393
*1922 FILLER_49_405
*1923 FILLER_49_51
*1924 FILLER_49_55
*1925 FILLER_49_57
*1926 FILLER_49_69
*1927 FILLER_49_81
*1928 FILLER_49_93
*1929 FILLER_4_109
*1930 FILLER_4_121
*1931 FILLER_4_133
*1932 FILLER_4_139
*1933 FILLER_4_141
*1934 FILLER_4_15
*1935 FILLER_4_153
*1936 FILLER_4_165
*1937 FILLER_4_177
*1938 FILLER_4_189
*1939 FILLER_4_195
*1940 FILLER_4_197
*1941 FILLER_4_209
*1942 FILLER_4_221
*1943 FILLER_4_233
*1944 FILLER_4_245
*1945 FILLER_4_251
*1946 FILLER_4_253
*1947 FILLER_4_265
*1948 FILLER_4_27
*1949 FILLER_4_277
*1950 FILLER_4_289
*1951 FILLER_4_29
*1952 FILLER_4_3
*1953 FILLER_4_301
*1954 FILLER_4_307
*1955 FILLER_4_309
*1956 FILLER_4_321
*1957 FILLER_4_333
*1958 FILLER_4_345
*1959 FILLER_4_357
*1960 FILLER_4_363
*1961 FILLER_4_365
*1962 FILLER_4_377
*1963 FILLER_4_389
*1964 FILLER_4_401
*1965 FILLER_4_41
*1966 FILLER_4_53
*1967 FILLER_4_65
*1968 FILLER_4_77
*1969 FILLER_4_83
*1970 FILLER_4_85
*1971 FILLER_4_97
*1972 FILLER_50_109
*1973 FILLER_50_121
*1974 FILLER_50_133
*1975 FILLER_50_139
*1976 FILLER_50_141
*1977 FILLER_50_15
*1978 FILLER_50_153
*1979 FILLER_50_165
*1980 FILLER_50_177
*1981 FILLER_50_189
*1982 FILLER_50_195
*1983 FILLER_50_197
*1984 FILLER_50_209
*1985 FILLER_50_221
*1986 FILLER_50_233
*1987 FILLER_50_245
*1988 FILLER_50_251
*1989 FILLER_50_253
*1990 FILLER_50_265
*1991 FILLER_50_27
*1992 FILLER_50_277
*1993 FILLER_50_289
*1994 FILLER_50_29
*1995 FILLER_50_3
*1996 FILLER_50_301
*1997 FILLER_50_307
*1998 FILLER_50_309
*1999 FILLER_50_321
*2000 FILLER_50_333
*2001 FILLER_50_345
*2002 FILLER_50_357
*2003 FILLER_50_363
*2004 FILLER_50_365
*2005 FILLER_50_377
*2006 FILLER_50_389
*2007 FILLER_50_401
*2008 FILLER_50_41
*2009 FILLER_50_53
*2010 FILLER_50_65
*2011 FILLER_50_77
*2012 FILLER_50_83
*2013 FILLER_50_85
*2014 FILLER_50_97
*2015 FILLER_51_105
*2016 FILLER_51_111
*2017 FILLER_51_113
*2018 FILLER_51_125
*2019 FILLER_51_137
*2020 FILLER_51_149
*2021 FILLER_51_15
*2022 FILLER_51_161
*2023 FILLER_51_167
*2024 FILLER_51_169
*2025 FILLER_51_181
*2026 FILLER_51_193
*2027 FILLER_51_205
*2028 FILLER_51_217
*2029 FILLER_51_223
*2030 FILLER_51_225
*2031 FILLER_51_237
*2032 FILLER_51_249
*2033 FILLER_51_261
*2034 FILLER_51_27
*2035 FILLER_51_273
*2036 FILLER_51_279
*2037 FILLER_51_281
*2038 FILLER_51_293
*2039 FILLER_51_3
*2040 FILLER_51_305
*2041 FILLER_51_317
*2042 FILLER_51_329
*2043 FILLER_51_335
*2044 FILLER_51_337
*2045 FILLER_51_349
*2046 FILLER_51_361
*2047 FILLER_51_373
*2048 FILLER_51_385
*2049 FILLER_51_39
*2050 FILLER_51_391
*2051 FILLER_51_393
*2052 FILLER_51_405
*2053 FILLER_51_51
*2054 FILLER_51_55
*2055 FILLER_51_57
*2056 FILLER_51_69
*2057 FILLER_51_81
*2058 FILLER_51_93
*2059 FILLER_52_109
*2060 FILLER_52_121
*2061 FILLER_52_133
*2062 FILLER_52_139
*2063 FILLER_52_141
*2064 FILLER_52_15
*2065 FILLER_52_153
*2066 FILLER_52_165
*2067 FILLER_52_177
*2068 FILLER_52_189
*2069 FILLER_52_195
*2070 FILLER_52_197
*2071 FILLER_52_209
*2072 FILLER_52_221
*2073 FILLER_52_233
*2074 FILLER_52_245
*2075 FILLER_52_251
*2076 FILLER_52_253
*2077 FILLER_52_265
*2078 FILLER_52_27
*2079 FILLER_52_277
*2080 FILLER_52_289
*2081 FILLER_52_29
*2082 FILLER_52_3
*2083 FILLER_52_301
*2084 FILLER_52_307
*2085 FILLER_52_309
*2086 FILLER_52_321
*2087 FILLER_52_333
*2088 FILLER_52_345
*2089 FILLER_52_357
*2090 FILLER_52_363
*2091 FILLER_52_365
*2092 FILLER_52_377
*2093 FILLER_52_389
*2094 FILLER_52_401
*2095 FILLER_52_41
*2096 FILLER_52_53
*2097 FILLER_52_65
*2098 FILLER_52_77
*2099 FILLER_52_83
*2100 FILLER_52_85
*2101 FILLER_52_97
*2102 FILLER_53_105
*2103 FILLER_53_111
*2104 FILLER_53_113
*2105 FILLER_53_125
*2106 FILLER_53_137
*2107 FILLER_53_149
*2108 FILLER_53_15
*2109 FILLER_53_161
*2110 FILLER_53_167
*2111 FILLER_53_169
*2112 FILLER_53_181
*2113 FILLER_53_193
*2114 FILLER_53_205
*2115 FILLER_53_217
*2116 FILLER_53_223
*2117 FILLER_53_225
*2118 FILLER_53_237
*2119 FILLER_53_249
*2120 FILLER_53_261
*2121 FILLER_53_27
*2122 FILLER_53_273
*2123 FILLER_53_279
*2124 FILLER_53_281
*2125 FILLER_53_293
*2126 FILLER_53_3
*2127 FILLER_53_305
*2128 FILLER_53_317
*2129 FILLER_53_329
*2130 FILLER_53_335
*2131 FILLER_53_337
*2132 FILLER_53_349
*2133 FILLER_53_361
*2134 FILLER_53_373
*2135 FILLER_53_385
*2136 FILLER_53_39
*2137 FILLER_53_391
*2138 FILLER_53_393
*2139 FILLER_53_405
*2140 FILLER_53_51
*2141 FILLER_53_55
*2142 FILLER_53_57
*2143 FILLER_53_69
*2144 FILLER_53_81
*2145 FILLER_53_93
*2146 FILLER_54_109
*2147 FILLER_54_121
*2148 FILLER_54_133
*2149 FILLER_54_139
*2150 FILLER_54_141
*2151 FILLER_54_15
*2152 FILLER_54_153
*2153 FILLER_54_165
*2154 FILLER_54_177
*2155 FILLER_54_189
*2156 FILLER_54_195
*2157 FILLER_54_197
*2158 FILLER_54_209
*2159 FILLER_54_221
*2160 FILLER_54_233
*2161 FILLER_54_245
*2162 FILLER_54_251
*2163 FILLER_54_253
*2164 FILLER_54_265
*2165 FILLER_54_27
*2166 FILLER_54_277
*2167 FILLER_54_289
*2168 FILLER_54_29
*2169 FILLER_54_3
*2170 FILLER_54_301
*2171 FILLER_54_307
*2172 FILLER_54_309
*2173 FILLER_54_321
*2174 FILLER_54_333
*2175 FILLER_54_345
*2176 FILLER_54_357
*2177 FILLER_54_363
*2178 FILLER_54_365
*2179 FILLER_54_377
*2180 FILLER_54_389
*2181 FILLER_54_401
*2182 FILLER_54_41
*2183 FILLER_54_53
*2184 FILLER_54_65
*2185 FILLER_54_77
*2186 FILLER_54_83
*2187 FILLER_54_85
*2188 FILLER_54_97
*2189 FILLER_55_105
*2190 FILLER_55_111
*2191 FILLER_55_113
*2192 FILLER_55_125
*2193 FILLER_55_137
*2194 FILLER_55_149
*2195 FILLER_55_15
*2196 FILLER_55_161
*2197 FILLER_55_167
*2198 FILLER_55_169
*2199 FILLER_55_181
*2200 FILLER_55_193
*2201 FILLER_55_205
*2202 FILLER_55_217
*2203 FILLER_55_223
*2204 FILLER_55_225
*2205 FILLER_55_237
*2206 FILLER_55_249
*2207 FILLER_55_261
*2208 FILLER_55_27
*2209 FILLER_55_273
*2210 FILLER_55_279
*2211 FILLER_55_281
*2212 FILLER_55_293
*2213 FILLER_55_3
*2214 FILLER_55_305
*2215 FILLER_55_317
*2216 FILLER_55_329
*2217 FILLER_55_335
*2218 FILLER_55_337
*2219 FILLER_55_349
*2220 FILLER_55_361
*2221 FILLER_55_373
*2222 FILLER_55_385
*2223 FILLER_55_39
*2224 FILLER_55_391
*2225 FILLER_55_393
*2226 FILLER_55_405
*2227 FILLER_55_51
*2228 FILLER_55_55
*2229 FILLER_55_57
*2230 FILLER_55_69
*2231 FILLER_55_81
*2232 FILLER_55_93
*2233 FILLER_56_109
*2234 FILLER_56_121
*2235 FILLER_56_133
*2236 FILLER_56_139
*2237 FILLER_56_141
*2238 FILLER_56_15
*2239 FILLER_56_153
*2240 FILLER_56_165
*2241 FILLER_56_177
*2242 FILLER_56_189
*2243 FILLER_56_195
*2244 FILLER_56_197
*2245 FILLER_56_209
*2246 FILLER_56_221
*2247 FILLER_56_233
*2248 FILLER_56_245
*2249 FILLER_56_251
*2250 FILLER_56_253
*2251 FILLER_56_265
*2252 FILLER_56_27
*2253 FILLER_56_277
*2254 FILLER_56_289
*2255 FILLER_56_29
*2256 FILLER_56_3
*2257 FILLER_56_301
*2258 FILLER_56_307
*2259 FILLER_56_309
*2260 FILLER_56_321
*2261 FILLER_56_333
*2262 FILLER_56_345
*2263 FILLER_56_357
*2264 FILLER_56_363
*2265 FILLER_56_365
*2266 FILLER_56_377
*2267 FILLER_56_389
*2268 FILLER_56_401
*2269 FILLER_56_41
*2270 FILLER_56_53
*2271 FILLER_56_65
*2272 FILLER_56_77
*2273 FILLER_56_83
*2274 FILLER_56_85
*2275 FILLER_56_97
*2276 FILLER_57_105
*2277 FILLER_57_111
*2278 FILLER_57_113
*2279 FILLER_57_125
*2280 FILLER_57_137
*2281 FILLER_57_149
*2282 FILLER_57_15
*2283 FILLER_57_161
*2284 FILLER_57_167
*2285 FILLER_57_169
*2286 FILLER_57_181
*2287 FILLER_57_193
*2288 FILLER_57_205
*2289 FILLER_57_217
*2290 FILLER_57_223
*2291 FILLER_57_225
*2292 FILLER_57_237
*2293 FILLER_57_249
*2294 FILLER_57_261
*2295 FILLER_57_27
*2296 FILLER_57_273
*2297 FILLER_57_279
*2298 FILLER_57_281
*2299 FILLER_57_293
*2300 FILLER_57_3
*2301 FILLER_57_305
*2302 FILLER_57_317
*2303 FILLER_57_329
*2304 FILLER_57_335
*2305 FILLER_57_337
*2306 FILLER_57_349
*2307 FILLER_57_361
*2308 FILLER_57_373
*2309 FILLER_57_385
*2310 FILLER_57_39
*2311 FILLER_57_391
*2312 FILLER_57_393
*2313 FILLER_57_405
*2314 FILLER_57_51
*2315 FILLER_57_55
*2316 FILLER_57_57
*2317 FILLER_57_69
*2318 FILLER_57_81
*2319 FILLER_57_93
*2320 FILLER_58_109
*2321 FILLER_58_121
*2322 FILLER_58_133
*2323 FILLER_58_139
*2324 FILLER_58_141
*2325 FILLER_58_15
*2326 FILLER_58_153
*2327 FILLER_58_165
*2328 FILLER_58_177
*2329 FILLER_58_189
*2330 FILLER_58_195
*2331 FILLER_58_197
*2332 FILLER_58_209
*2333 FILLER_58_221
*2334 FILLER_58_233
*2335 FILLER_58_245
*2336 FILLER_58_251
*2337 FILLER_58_253
*2338 FILLER_58_265
*2339 FILLER_58_27
*2340 FILLER_58_277
*2341 FILLER_58_289
*2342 FILLER_58_29
*2343 FILLER_58_3
*2344 FILLER_58_301
*2345 FILLER_58_307
*2346 FILLER_58_309
*2347 FILLER_58_321
*2348 FILLER_58_333
*2349 FILLER_58_345
*2350 FILLER_58_357
*2351 FILLER_58_363
*2352 FILLER_58_365
*2353 FILLER_58_377
*2354 FILLER_58_389
*2355 FILLER_58_401
*2356 FILLER_58_41
*2357 FILLER_58_53
*2358 FILLER_58_65
*2359 FILLER_58_77
*2360 FILLER_58_83
*2361 FILLER_58_85
*2362 FILLER_58_97
*2363 FILLER_59_105
*2364 FILLER_59_111
*2365 FILLER_59_113
*2366 FILLER_59_125
*2367 FILLER_59_137
*2368 FILLER_59_149
*2369 FILLER_59_15
*2370 FILLER_59_161
*2371 FILLER_59_167
*2372 FILLER_59_169
*2373 FILLER_59_181
*2374 FILLER_59_193
*2375 FILLER_59_205
*2376 FILLER_59_217
*2377 FILLER_59_223
*2378 FILLER_59_225
*2379 FILLER_59_237
*2380 FILLER_59_249
*2381 FILLER_59_261
*2382 FILLER_59_27
*2383 FILLER_59_273
*2384 FILLER_59_279
*2385 FILLER_59_281
*2386 FILLER_59_293
*2387 FILLER_59_3
*2388 FILLER_59_305
*2389 FILLER_59_317
*2390 FILLER_59_329
*2391 FILLER_59_335
*2392 FILLER_59_337
*2393 FILLER_59_349
*2394 FILLER_59_361
*2395 FILLER_59_373
*2396 FILLER_59_385
*2397 FILLER_59_39
*2398 FILLER_59_391
*2399 FILLER_59_393
*2400 FILLER_59_405
*2401 FILLER_59_51
*2402 FILLER_59_55
*2403 FILLER_59_57
*2404 FILLER_59_69
*2405 FILLER_59_81
*2406 FILLER_59_93
*2407 FILLER_5_105
*2408 FILLER_5_111
*2409 FILLER_5_113
*2410 FILLER_5_125
*2411 FILLER_5_137
*2412 FILLER_5_149
*2413 FILLER_5_15
*2414 FILLER_5_161
*2415 FILLER_5_167
*2416 FILLER_5_169
*2417 FILLER_5_181
*2418 FILLER_5_193
*2419 FILLER_5_205
*2420 FILLER_5_217
*2421 FILLER_5_223
*2422 FILLER_5_225
*2423 FILLER_5_237
*2424 FILLER_5_249
*2425 FILLER_5_261
*2426 FILLER_5_27
*2427 FILLER_5_273
*2428 FILLER_5_279
*2429 FILLER_5_281
*2430 FILLER_5_293
*2431 FILLER_5_3
*2432 FILLER_5_305
*2433 FILLER_5_317
*2434 FILLER_5_329
*2435 FILLER_5_335
*2436 FILLER_5_337
*2437 FILLER_5_349
*2438 FILLER_5_361
*2439 FILLER_5_373
*2440 FILLER_5_385
*2441 FILLER_5_39
*2442 FILLER_5_391
*2443 FILLER_5_393
*2444 FILLER_5_405
*2445 FILLER_5_51
*2446 FILLER_5_55
*2447 FILLER_5_57
*2448 FILLER_5_69
*2449 FILLER_5_81
*2450 FILLER_5_93
*2451 FILLER_60_109
*2452 FILLER_60_121
*2453 FILLER_60_133
*2454 FILLER_60_139
*2455 FILLER_60_141
*2456 FILLER_60_15
*2457 FILLER_60_153
*2458 FILLER_60_165
*2459 FILLER_60_177
*2460 FILLER_60_189
*2461 FILLER_60_195
*2462 FILLER_60_197
*2463 FILLER_60_209
*2464 FILLER_60_221
*2465 FILLER_60_233
*2466 FILLER_60_245
*2467 FILLER_60_251
*2468 FILLER_60_253
*2469 FILLER_60_265
*2470 FILLER_60_27
*2471 FILLER_60_277
*2472 FILLER_60_289
*2473 FILLER_60_29
*2474 FILLER_60_3
*2475 FILLER_60_301
*2476 FILLER_60_307
*2477 FILLER_60_309
*2478 FILLER_60_321
*2479 FILLER_60_333
*2480 FILLER_60_345
*2481 FILLER_60_357
*2482 FILLER_60_363
*2483 FILLER_60_365
*2484 FILLER_60_377
*2485 FILLER_60_389
*2486 FILLER_60_401
*2487 FILLER_60_41
*2488 FILLER_60_53
*2489 FILLER_60_65
*2490 FILLER_60_77
*2491 FILLER_60_83
*2492 FILLER_60_85
*2493 FILLER_60_97
*2494 FILLER_61_105
*2495 FILLER_61_111
*2496 FILLER_61_113
*2497 FILLER_61_125
*2498 FILLER_61_137
*2499 FILLER_61_149
*2500 FILLER_61_15
*2501 FILLER_61_161
*2502 FILLER_61_167
*2503 FILLER_61_169
*2504 FILLER_61_181
*2505 FILLER_61_193
*2506 FILLER_61_205
*2507 FILLER_61_217
*2508 FILLER_61_223
*2509 FILLER_61_225
*2510 FILLER_61_237
*2511 FILLER_61_249
*2512 FILLER_61_261
*2513 FILLER_61_27
*2514 FILLER_61_273
*2515 FILLER_61_279
*2516 FILLER_61_281
*2517 FILLER_61_293
*2518 FILLER_61_3
*2519 FILLER_61_305
*2520 FILLER_61_317
*2521 FILLER_61_329
*2522 FILLER_61_335
*2523 FILLER_61_337
*2524 FILLER_61_349
*2525 FILLER_61_361
*2526 FILLER_61_373
*2527 FILLER_61_385
*2528 FILLER_61_39
*2529 FILLER_61_391
*2530 FILLER_61_393
*2531 FILLER_61_405
*2532 FILLER_61_51
*2533 FILLER_61_55
*2534 FILLER_61_57
*2535 FILLER_61_69
*2536 FILLER_61_81
*2537 FILLER_61_93
*2538 FILLER_62_109
*2539 FILLER_62_121
*2540 FILLER_62_133
*2541 FILLER_62_139
*2542 FILLER_62_141
*2543 FILLER_62_15
*2544 FILLER_62_153
*2545 FILLER_62_165
*2546 FILLER_62_177
*2547 FILLER_62_189
*2548 FILLER_62_195
*2549 FILLER_62_197
*2550 FILLER_62_209
*2551 FILLER_62_221
*2552 FILLER_62_233
*2553 FILLER_62_245
*2554 FILLER_62_251
*2555 FILLER_62_253
*2556 FILLER_62_265
*2557 FILLER_62_27
*2558 FILLER_62_277
*2559 FILLER_62_289
*2560 FILLER_62_29
*2561 FILLER_62_3
*2562 FILLER_62_301
*2563 FILLER_62_307
*2564 FILLER_62_309
*2565 FILLER_62_321
*2566 FILLER_62_333
*2567 FILLER_62_345
*2568 FILLER_62_357
*2569 FILLER_62_363
*2570 FILLER_62_365
*2571 FILLER_62_377
*2572 FILLER_62_389
*2573 FILLER_62_401
*2574 FILLER_62_41
*2575 FILLER_62_53
*2576 FILLER_62_65
*2577 FILLER_62_77
*2578 FILLER_62_83
*2579 FILLER_62_85
*2580 FILLER_62_97
*2581 FILLER_63_105
*2582 FILLER_63_111
*2583 FILLER_63_113
*2584 FILLER_63_125
*2585 FILLER_63_137
*2586 FILLER_63_149
*2587 FILLER_63_15
*2588 FILLER_63_161
*2589 FILLER_63_167
*2590 FILLER_63_169
*2591 FILLER_63_181
*2592 FILLER_63_193
*2593 FILLER_63_205
*2594 FILLER_63_217
*2595 FILLER_63_223
*2596 FILLER_63_225
*2597 FILLER_63_237
*2598 FILLER_63_249
*2599 FILLER_63_261
*2600 FILLER_63_27
*2601 FILLER_63_273
*2602 FILLER_63_279
*2603 FILLER_63_281
*2604 FILLER_63_293
*2605 FILLER_63_3
*2606 FILLER_63_305
*2607 FILLER_63_317
*2608 FILLER_63_329
*2609 FILLER_63_335
*2610 FILLER_63_337
*2611 FILLER_63_349
*2612 FILLER_63_361
*2613 FILLER_63_373
*2614 FILLER_63_385
*2615 FILLER_63_39
*2616 FILLER_63_391
*2617 FILLER_63_393
*2618 FILLER_63_405
*2619 FILLER_63_51
*2620 FILLER_63_55
*2621 FILLER_63_57
*2622 FILLER_63_69
*2623 FILLER_63_81
*2624 FILLER_63_93
*2625 FILLER_64_109
*2626 FILLER_64_113
*2627 FILLER_64_125
*2628 FILLER_64_137
*2629 FILLER_64_141
*2630 FILLER_64_15
*2631 FILLER_64_153
*2632 FILLER_64_165
*2633 FILLER_64_169
*2634 FILLER_64_181
*2635 FILLER_64_193
*2636 FILLER_64_197
*2637 FILLER_64_209
*2638 FILLER_64_221
*2639 FILLER_64_225
*2640 FILLER_64_237
*2641 FILLER_64_249
*2642 FILLER_64_253
*2643 FILLER_64_265
*2644 FILLER_64_27
*2645 FILLER_64_277
*2646 FILLER_64_281
*2647 FILLER_64_29
*2648 FILLER_64_293
*2649 FILLER_64_3
*2650 FILLER_64_305
*2651 FILLER_64_309
*2652 FILLER_64_321
*2653 FILLER_64_333
*2654 FILLER_64_337
*2655 FILLER_64_349
*2656 FILLER_64_361
*2657 FILLER_64_365
*2658 FILLER_64_377
*2659 FILLER_64_389
*2660 FILLER_64_393
*2661 FILLER_64_405
*2662 FILLER_64_41
*2663 FILLER_64_53
*2664 FILLER_64_57
*2665 FILLER_64_69
*2666 FILLER_64_81
*2667 FILLER_64_85
*2668 FILLER_64_97
*2669 FILLER_6_109
*2670 FILLER_6_121
*2671 FILLER_6_133
*2672 FILLER_6_139
*2673 FILLER_6_141
*2674 FILLER_6_15
*2675 FILLER_6_153
*2676 FILLER_6_165
*2677 FILLER_6_177
*2678 FILLER_6_189
*2679 FILLER_6_195
*2680 FILLER_6_197
*2681 FILLER_6_209
*2682 FILLER_6_221
*2683 FILLER_6_233
*2684 FILLER_6_245
*2685 FILLER_6_251
*2686 FILLER_6_253
*2687 FILLER_6_265
*2688 FILLER_6_27
*2689 FILLER_6_277
*2690 FILLER_6_289
*2691 FILLER_6_29
*2692 FILLER_6_3
*2693 FILLER_6_301
*2694 FILLER_6_307
*2695 FILLER_6_309
*2696 FILLER_6_321
*2697 FILLER_6_333
*2698 FILLER_6_345
*2699 FILLER_6_357
*2700 FILLER_6_363
*2701 FILLER_6_365
*2702 FILLER_6_377
*2703 FILLER_6_389
*2704 FILLER_6_401
*2705 FILLER_6_41
*2706 FILLER_6_53
*2707 FILLER_6_65
*2708 FILLER_6_77
*2709 FILLER_6_83
*2710 FILLER_6_85
*2711 FILLER_6_97
*2712 FILLER_7_105
*2713 FILLER_7_111
*2714 FILLER_7_113
*2715 FILLER_7_125
*2716 FILLER_7_137
*2717 FILLER_7_149
*2718 FILLER_7_15
*2719 FILLER_7_161
*2720 FILLER_7_167
*2721 FILLER_7_169
*2722 FILLER_7_181
*2723 FILLER_7_193
*2724 FILLER_7_205
*2725 FILLER_7_217
*2726 FILLER_7_223
*2727 FILLER_7_225
*2728 FILLER_7_237
*2729 FILLER_7_249
*2730 FILLER_7_261
*2731 FILLER_7_27
*2732 FILLER_7_273
*2733 FILLER_7_279
*2734 FILLER_7_281
*2735 FILLER_7_293
*2736 FILLER_7_3
*2737 FILLER_7_305
*2738 FILLER_7_317
*2739 FILLER_7_329
*2740 FILLER_7_335
*2741 FILLER_7_337
*2742 FILLER_7_349
*2743 FILLER_7_361
*2744 FILLER_7_373
*2745 FILLER_7_385
*2746 FILLER_7_39
*2747 FILLER_7_391
*2748 FILLER_7_393
*2749 FILLER_7_405
*2750 FILLER_7_51
*2751 FILLER_7_55
*2752 FILLER_7_57
*2753 FILLER_7_69
*2754 FILLER_7_81
*2755 FILLER_7_93
*2756 FILLER_8_109
*2757 FILLER_8_121
*2758 FILLER_8_133
*2759 FILLER_8_139
*2760 FILLER_8_141
*2761 FILLER_8_15
*2762 FILLER_8_153
*2763 FILLER_8_165
*2764 FILLER_8_177
*2765 FILLER_8_189
*2766 FILLER_8_195
*2767 FILLER_8_197
*2768 FILLER_8_209
*2769 FILLER_8_221
*2770 FILLER_8_233
*2771 FILLER_8_245
*2772 FILLER_8_251
*2773 FILLER_8_253
*2774 FILLER_8_265
*2775 FILLER_8_27
*2776 FILLER_8_277
*2777 FILLER_8_289
*2778 FILLER_8_29
*2779 FILLER_8_3
*2780 FILLER_8_301
*2781 FILLER_8_307
*2782 FILLER_8_309
*2783 FILLER_8_321
*2784 FILLER_8_333
*2785 FILLER_8_345
*2786 FILLER_8_357
*2787 FILLER_8_363
*2788 FILLER_8_365
*2789 FILLER_8_377
*2790 FILLER_8_389
*2791 FILLER_8_401
*2792 FILLER_8_41
*2793 FILLER_8_53
*2794 FILLER_8_65
*2795 FILLER_8_77
*2796 FILLER_8_83
*2797 FILLER_8_85
*2798 FILLER_8_97
*2799 FILLER_9_105
*2800 FILLER_9_111
*2801 FILLER_9_113
*2802 FILLER_9_125
*2803 FILLER_9_137
*2804 FILLER_9_149
*2805 FILLER_9_15
*2806 FILLER_9_161
*2807 FILLER_9_167
*2808 FILLER_9_169
*2809 FILLER_9_181
*2810 FILLER_9_193
*2811 FILLER_9_205
*2812 FILLER_9_217
*2813 FILLER_9_223
*2814 FILLER_9_225
*2815 FILLER_9_237
*2816 FILLER_9_249
*2817 FILLER_9_261
*2818 FILLER_9_27
*2819 FILLER_9_273
*2820 FILLER_9_279
*2821 FILLER_9_281
*2822 FILLER_9_293
*2823 FILLER_9_3
*2824 FILLER_9_305
*2825 FILLER_9_317
*2826 FILLER_9_329
*2827 FILLER_9_335
*2828 FILLER_9_337
*2829 FILLER_9_349
*2830 FILLER_9_361
*2831 FILLER_9_373
*2832 FILLER_9_385
*2833 FILLER_9_39
*2834 FILLER_9_391
*2835 FILLER_9_393
*2836 FILLER_9_405
*2837 FILLER_9_51
*2838 FILLER_9_55
*2839 FILLER_9_57
*2840 FILLER_9_69
*2841 FILLER_9_81
*2842 FILLER_9_93
*2843 PHY_EDGE_ROW_0_Left_65
*2844 PHY_EDGE_ROW_0_Right_0
*2845 PHY_EDGE_ROW_10_Left_75
*2846 PHY_EDGE_ROW_10_Right_10
*2847 PHY_EDGE_ROW_11_Left_76
*2848 PHY_EDGE_ROW_11_Right_11
*2849 PHY_EDGE_ROW_12_Left_77
*2850 PHY_EDGE_ROW_12_Right_12
*2851 PHY_EDGE_ROW_13_Left_78
*2852 PHY_EDGE_ROW_13_Right_13
*2853 PHY_EDGE_ROW_14_Left_79
*2854 PHY_EDGE_ROW_14_Right_14
*2855 PHY_EDGE_ROW_15_Left_80
*2856 PHY_EDGE_ROW_15_Right_15
*2857 PHY_EDGE_ROW_16_Left_81
*2858 PHY_EDGE_ROW_16_Right_16
*2859 PHY_EDGE_ROW_17_Left_82
*2860 PHY_EDGE_ROW_17_Right_17
*2861 PHY_EDGE_ROW_18_Left_83
*2862 PHY_EDGE_ROW_18_Right_18
*2863 PHY_EDGE_ROW_19_Left_84
*2864 PHY_EDGE_ROW_19_Right_19
*2865 PHY_EDGE_ROW_1_Left_66
*2866 PHY_EDGE_ROW_1_Right_1
*2867 PHY_EDGE_ROW_20_Left_85
*2868 PHY_EDGE_ROW_20_Right_20
*2869 PHY_EDGE_ROW_21_Left_86
*2870 PHY_EDGE_ROW_21_Right_21
*2871 PHY_EDGE_ROW_22_Left_87
*2872 PHY_EDGE_ROW_22_Right_22
*2873 PHY_EDGE_ROW_23_Left_88
*2874 PHY_EDGE_ROW_23_Right_23
*2875 PHY_EDGE_ROW_24_Left_89
*2876 PHY_EDGE_ROW_24_Right_24
*2877 PHY_EDGE_ROW_25_Left_90
*2878 PHY_EDGE_ROW_25_Right_25
*2879 PHY_EDGE_ROW_26_Left_91
*2880 PHY_EDGE_ROW_26_Right_26
*2881 PHY_EDGE_ROW_27_Left_92
*2882 PHY_EDGE_ROW_27_Right_27
*2883 PHY_EDGE_ROW_28_Left_93
*2884 PHY_EDGE_ROW_28_Right_28
*2885 PHY_EDGE_ROW_29_Left_94
*2886 PHY_EDGE_ROW_29_Right_29
*2887 PHY_EDGE_ROW_2_Left_67
*2888 PHY_EDGE_ROW_2_Right_2
*2889 PHY_EDGE_ROW_30_Left_95
*2890 PHY_EDGE_ROW_30_Right_30
*2891 PHY_EDGE_ROW_31_Left_96
*2892 PHY_EDGE_ROW_31_Right_31
*2893 PHY_EDGE_ROW_32_Left_97
*2894 PHY_EDGE_ROW_32_Right_32
*2895 PHY_EDGE_ROW_33_Left_98
*2896 PHY_EDGE_ROW_33_Right_33
*2897 PHY_EDGE_ROW_34_Left_99
*2898 PHY_EDGE_ROW_34_Right_34
*2899 PHY_EDGE_ROW_35_Left_100
*2900 PHY_EDGE_ROW_35_Right_35
*2901 PHY_EDGE_ROW_36_Left_101
*2902 PHY_EDGE_ROW_36_Right_36
*2903 PHY_EDGE_ROW_37_Left_102
*2904 PHY_EDGE_ROW_37_Right_37
*2905 PHY_EDGE_ROW_38_Left_103
*2906 PHY_EDGE_ROW_38_Right_38
*2907 PHY_EDGE_ROW_39_Left_104
*2908 PHY_EDGE_ROW_39_Right_39
*2909 PHY_EDGE_ROW_3_Left_68
*2910 PHY_EDGE_ROW_3_Right_3
*2911 PHY_EDGE_ROW_40_Left_105
*2912 PHY_EDGE_ROW_40_Right_40
*2913 PHY_EDGE_ROW_41_Left_106
*2914 PHY_EDGE_ROW_41_Right_41
*2915 PHY_EDGE_ROW_42_Left_107
*2916 PHY_EDGE_ROW_42_Right_42
*2917 PHY_EDGE_ROW_43_Left_108
*2918 PHY_EDGE_ROW_43_Right_43
*2919 PHY_EDGE_ROW_44_Left_109
*2920 PHY_EDGE_ROW_44_Right_44
*2921 PHY_EDGE_ROW_45_Left_110
*2922 PHY_EDGE_ROW_45_Right_45
*2923 PHY_EDGE_ROW_46_Left_111
*2924 PHY_EDGE_ROW_46_Right_46
*2925 PHY_EDGE_ROW_47_Left_112
*2926 PHY_EDGE_ROW_47_Right_47
*2927 PHY_EDGE_ROW_48_Left_113
*2928 PHY_EDGE_ROW_48_Right_48
*2929 PHY_EDGE_ROW_49_Left_114
*2930 PHY_EDGE_ROW_49_Right_49
*2931 PHY_EDGE_ROW_4_Left_69
*2932 PHY_EDGE_ROW_4_Right_4
*2933 PHY_EDGE_ROW_50_Left_115
*2934 PHY_EDGE_ROW_50_Right_50
*2935 PHY_EDGE_ROW_51_Left_116
*2936 PHY_EDGE_ROW_51_Right_51
*2937 PHY_EDGE_ROW_52_Left_117
*2938 PHY_EDGE_ROW_52_Right_52
*2939 PHY_EDGE_ROW_53_Left_118
*2940 PHY_EDGE_ROW_53_Right_53
*2941 PHY_EDGE_ROW_54_Left_119
*2942 PHY_EDGE_ROW_54_Right_54
*2943 PHY_EDGE_ROW_55_Left_120
*2944 PHY_EDGE_ROW_55_Right_55
*2945 PHY_EDGE_ROW_56_Left_121
*2946 PHY_EDGE_ROW_56_Right_56
*2947 PHY_EDGE_ROW_57_Left_122
*2948 PHY_EDGE_ROW_57_Right_57
*2949 PHY_EDGE_ROW_58_Left_123
*2950 PHY_EDGE_ROW_58_Right_58
*2951 PHY_EDGE_ROW_59_Left_124
*2952 PHY_EDGE_ROW_59_Right_59
*2953 PHY_EDGE_ROW_5_Left_70
*2954 PHY_EDGE_ROW_5_Right_5
*2955 PHY_EDGE_ROW_60_Left_125
*2956 PHY_EDGE_ROW_60_Right_60
*2957 PHY_EDGE_ROW_61_Left_126
*2958 PHY_EDGE_ROW_61_Right_61
*2959 PHY_EDGE_ROW_62_Left_127
*2960 PHY_EDGE_ROW_62_Right_62
*2961 PHY_EDGE_ROW_63_Left_128
*2962 PHY_EDGE_ROW_63_Right_63
*2963 PHY_EDGE_ROW_64_Left_129
*2964 PHY_EDGE_ROW_64_Right_64
*2965 PHY_EDGE_ROW_6_Left_71
*2966 PHY_EDGE_ROW_6_Right_6
*2967 PHY_EDGE_ROW_7_Left_72
*2968 PHY_EDGE_ROW_7_Right_7
*2969 PHY_EDGE_ROW_8_Left_73
*2970 PHY_EDGE_ROW_8_Right_8
*2971 PHY_EDGE_ROW_9_Left_74
*2972 PHY_EDGE_ROW_9_Right_9
*2973 TAP_TAPCELL_ROW_0_130
*2974 TAP_TAPCELL_ROW_0_131
*2975 TAP_TAPCELL_ROW_0_132
*2976 TAP_TAPCELL_ROW_0_133
*2977 TAP_TAPCELL_ROW_0_134
*2978 TAP_TAPCELL_ROW_0_135
*2979 TAP_TAPCELL_ROW_0_136
*2980 TAP_TAPCELL_ROW_0_137
*2981 TAP_TAPCELL_ROW_0_138
*2982 TAP_TAPCELL_ROW_0_139
*2983 TAP_TAPCELL_ROW_0_140
*2984 TAP_TAPCELL_ROW_0_141
*2985 TAP_TAPCELL_ROW_0_142
*2986 TAP_TAPCELL_ROW_0_143
*2987 TAP_TAPCELL_ROW_10_207
*2988 TAP_TAPCELL_ROW_10_208
*2989 TAP_TAPCELL_ROW_10_209
*2990 TAP_TAPCELL_ROW_10_210
*2991 TAP_TAPCELL_ROW_10_211
*2992 TAP_TAPCELL_ROW_10_212
*2993 TAP_TAPCELL_ROW_10_213
*2994 TAP_TAPCELL_ROW_11_214
*2995 TAP_TAPCELL_ROW_11_215
*2996 TAP_TAPCELL_ROW_11_216
*2997 TAP_TAPCELL_ROW_11_217
*2998 TAP_TAPCELL_ROW_11_218
*2999 TAP_TAPCELL_ROW_11_219
*3000 TAP_TAPCELL_ROW_11_220
*3001 TAP_TAPCELL_ROW_12_221
*3002 TAP_TAPCELL_ROW_12_222
*3003 TAP_TAPCELL_ROW_12_223
*3004 TAP_TAPCELL_ROW_12_224
*3005 TAP_TAPCELL_ROW_12_225
*3006 TAP_TAPCELL_ROW_12_226
*3007 TAP_TAPCELL_ROW_12_227
*3008 TAP_TAPCELL_ROW_13_228
*3009 TAP_TAPCELL_ROW_13_229
*3010 TAP_TAPCELL_ROW_13_230
*3011 TAP_TAPCELL_ROW_13_231
*3012 TAP_TAPCELL_ROW_13_232
*3013 TAP_TAPCELL_ROW_13_233
*3014 TAP_TAPCELL_ROW_13_234
*3015 TAP_TAPCELL_ROW_14_235
*3016 TAP_TAPCELL_ROW_14_236
*3017 TAP_TAPCELL_ROW_14_237
*3018 TAP_TAPCELL_ROW_14_238
*3019 TAP_TAPCELL_ROW_14_239
*3020 TAP_TAPCELL_ROW_14_240
*3021 TAP_TAPCELL_ROW_14_241
*3022 TAP_TAPCELL_ROW_15_242
*3023 TAP_TAPCELL_ROW_15_243
*3024 TAP_TAPCELL_ROW_15_244
*3025 TAP_TAPCELL_ROW_15_245
*3026 TAP_TAPCELL_ROW_15_246
*3027 TAP_TAPCELL_ROW_15_247
*3028 TAP_TAPCELL_ROW_15_248
*3029 TAP_TAPCELL_ROW_16_249
*3030 TAP_TAPCELL_ROW_16_250
*3031 TAP_TAPCELL_ROW_16_251
*3032 TAP_TAPCELL_ROW_16_252
*3033 TAP_TAPCELL_ROW_16_253
*3034 TAP_TAPCELL_ROW_16_254
*3035 TAP_TAPCELL_ROW_16_255
*3036 TAP_TAPCELL_ROW_17_256
*3037 TAP_TAPCELL_ROW_17_257
*3038 TAP_TAPCELL_ROW_17_258
*3039 TAP_TAPCELL_ROW_17_259
*3040 TAP_TAPCELL_ROW_17_260
*3041 TAP_TAPCELL_ROW_17_261
*3042 TAP_TAPCELL_ROW_17_262
*3043 TAP_TAPCELL_ROW_18_263
*3044 TAP_TAPCELL_ROW_18_264
*3045 TAP_TAPCELL_ROW_18_265
*3046 TAP_TAPCELL_ROW_18_266
*3047 TAP_TAPCELL_ROW_18_267
*3048 TAP_TAPCELL_ROW_18_268
*3049 TAP_TAPCELL_ROW_18_269
*3050 TAP_TAPCELL_ROW_19_270
*3051 TAP_TAPCELL_ROW_19_271
*3052 TAP_TAPCELL_ROW_19_272
*3053 TAP_TAPCELL_ROW_19_273
*3054 TAP_TAPCELL_ROW_19_274
*3055 TAP_TAPCELL_ROW_19_275
*3056 TAP_TAPCELL_ROW_19_276
*3057 TAP_TAPCELL_ROW_1_144
*3058 TAP_TAPCELL_ROW_1_145
*3059 TAP_TAPCELL_ROW_1_146
*3060 TAP_TAPCELL_ROW_1_147
*3061 TAP_TAPCELL_ROW_1_148
*3062 TAP_TAPCELL_ROW_1_149
*3063 TAP_TAPCELL_ROW_1_150
*3064 TAP_TAPCELL_ROW_20_277
*3065 TAP_TAPCELL_ROW_20_278
*3066 TAP_TAPCELL_ROW_20_279
*3067 TAP_TAPCELL_ROW_20_280
*3068 TAP_TAPCELL_ROW_20_281
*3069 TAP_TAPCELL_ROW_20_282
*3070 TAP_TAPCELL_ROW_20_283
*3071 TAP_TAPCELL_ROW_21_284
*3072 TAP_TAPCELL_ROW_21_285
*3073 TAP_TAPCELL_ROW_21_286
*3074 TAP_TAPCELL_ROW_21_287
*3075 TAP_TAPCELL_ROW_21_288
*3076 TAP_TAPCELL_ROW_21_289
*3077 TAP_TAPCELL_ROW_21_290
*3078 TAP_TAPCELL_ROW_22_291
*3079 TAP_TAPCELL_ROW_22_292
*3080 TAP_TAPCELL_ROW_22_293
*3081 TAP_TAPCELL_ROW_22_294
*3082 TAP_TAPCELL_ROW_22_295
*3083 TAP_TAPCELL_ROW_22_296
*3084 TAP_TAPCELL_ROW_22_297
*3085 TAP_TAPCELL_ROW_23_298
*3086 TAP_TAPCELL_ROW_23_299
*3087 TAP_TAPCELL_ROW_23_300
*3088 TAP_TAPCELL_ROW_23_301
*3089 TAP_TAPCELL_ROW_23_302
*3090 TAP_TAPCELL_ROW_23_303
*3091 TAP_TAPCELL_ROW_23_304
*3092 TAP_TAPCELL_ROW_24_305
*3093 TAP_TAPCELL_ROW_24_306
*3094 TAP_TAPCELL_ROW_24_307
*3095 TAP_TAPCELL_ROW_24_308
*3096 TAP_TAPCELL_ROW_24_309
*3097 TAP_TAPCELL_ROW_24_310
*3098 TAP_TAPCELL_ROW_24_311
*3099 TAP_TAPCELL_ROW_25_312
*3100 TAP_TAPCELL_ROW_25_313
*3101 TAP_TAPCELL_ROW_25_314
*3102 TAP_TAPCELL_ROW_25_315
*3103 TAP_TAPCELL_ROW_25_316
*3104 TAP_TAPCELL_ROW_25_317
*3105 TAP_TAPCELL_ROW_25_318
*3106 TAP_TAPCELL_ROW_26_319
*3107 TAP_TAPCELL_ROW_26_320
*3108 TAP_TAPCELL_ROW_26_321
*3109 TAP_TAPCELL_ROW_26_322
*3110 TAP_TAPCELL_ROW_26_323
*3111 TAP_TAPCELL_ROW_26_324
*3112 TAP_TAPCELL_ROW_26_325
*3113 TAP_TAPCELL_ROW_27_326
*3114 TAP_TAPCELL_ROW_27_327
*3115 TAP_TAPCELL_ROW_27_328
*3116 TAP_TAPCELL_ROW_27_329
*3117 TAP_TAPCELL_ROW_27_330
*3118 TAP_TAPCELL_ROW_27_331
*3119 TAP_TAPCELL_ROW_27_332
*3120 TAP_TAPCELL_ROW_28_333
*3121 TAP_TAPCELL_ROW_28_334
*3122 TAP_TAPCELL_ROW_28_335
*3123 TAP_TAPCELL_ROW_28_336
*3124 TAP_TAPCELL_ROW_28_337
*3125 TAP_TAPCELL_ROW_28_338
*3126 TAP_TAPCELL_ROW_28_339
*3127 TAP_TAPCELL_ROW_29_340
*3128 TAP_TAPCELL_ROW_29_341
*3129 TAP_TAPCELL_ROW_29_342
*3130 TAP_TAPCELL_ROW_29_343
*3131 TAP_TAPCELL_ROW_29_344
*3132 TAP_TAPCELL_ROW_29_345
*3133 TAP_TAPCELL_ROW_29_346
*3134 TAP_TAPCELL_ROW_2_151
*3135 TAP_TAPCELL_ROW_2_152
*3136 TAP_TAPCELL_ROW_2_153
*3137 TAP_TAPCELL_ROW_2_154
*3138 TAP_TAPCELL_ROW_2_155
*3139 TAP_TAPCELL_ROW_2_156
*3140 TAP_TAPCELL_ROW_2_157
*3141 TAP_TAPCELL_ROW_30_347
*3142 TAP_TAPCELL_ROW_30_348
*3143 TAP_TAPCELL_ROW_30_349
*3144 TAP_TAPCELL_ROW_30_350
*3145 TAP_TAPCELL_ROW_30_351
*3146 TAP_TAPCELL_ROW_30_352
*3147 TAP_TAPCELL_ROW_30_353
*3148 TAP_TAPCELL_ROW_31_354
*3149 TAP_TAPCELL_ROW_31_355
*3150 TAP_TAPCELL_ROW_31_356
*3151 TAP_TAPCELL_ROW_31_357
*3152 TAP_TAPCELL_ROW_31_358
*3153 TAP_TAPCELL_ROW_31_359
*3154 TAP_TAPCELL_ROW_31_360
*3155 TAP_TAPCELL_ROW_32_361
*3156 TAP_TAPCELL_ROW_32_362
*3157 TAP_TAPCELL_ROW_32_363
*3158 TAP_TAPCELL_ROW_32_364
*3159 TAP_TAPCELL_ROW_32_365
*3160 TAP_TAPCELL_ROW_32_366
*3161 TAP_TAPCELL_ROW_32_367
*3162 TAP_TAPCELL_ROW_33_368
*3163 TAP_TAPCELL_ROW_33_369
*3164 TAP_TAPCELL_ROW_33_370
*3165 TAP_TAPCELL_ROW_33_371
*3166 TAP_TAPCELL_ROW_33_372
*3167 TAP_TAPCELL_ROW_33_373
*3168 TAP_TAPCELL_ROW_33_374
*3169 TAP_TAPCELL_ROW_34_375
*3170 TAP_TAPCELL_ROW_34_376
*3171 TAP_TAPCELL_ROW_34_377
*3172 TAP_TAPCELL_ROW_34_378
*3173 TAP_TAPCELL_ROW_34_379
*3174 TAP_TAPCELL_ROW_34_380
*3175 TAP_TAPCELL_ROW_34_381
*3176 TAP_TAPCELL_ROW_35_382
*3177 TAP_TAPCELL_ROW_35_383
*3178 TAP_TAPCELL_ROW_35_384
*3179 TAP_TAPCELL_ROW_35_385
*3180 TAP_TAPCELL_ROW_35_386
*3181 TAP_TAPCELL_ROW_35_387
*3182 TAP_TAPCELL_ROW_35_388
*3183 TAP_TAPCELL_ROW_36_389
*3184 TAP_TAPCELL_ROW_36_390
*3185 TAP_TAPCELL_ROW_36_391
*3186 TAP_TAPCELL_ROW_36_392
*3187 TAP_TAPCELL_ROW_36_393
*3188 TAP_TAPCELL_ROW_36_394
*3189 TAP_TAPCELL_ROW_36_395
*3190 TAP_TAPCELL_ROW_37_396
*3191 TAP_TAPCELL_ROW_37_397
*3192 TAP_TAPCELL_ROW_37_398
*3193 TAP_TAPCELL_ROW_37_399
*3194 TAP_TAPCELL_ROW_37_400
*3195 TAP_TAPCELL_ROW_37_401
*3196 TAP_TAPCELL_ROW_37_402
*3197 TAP_TAPCELL_ROW_38_403
*3198 TAP_TAPCELL_ROW_38_404
*3199 TAP_TAPCELL_ROW_38_405
*3200 TAP_TAPCELL_ROW_38_406
*3201 TAP_TAPCELL_ROW_38_407
*3202 TAP_TAPCELL_ROW_38_408
*3203 TAP_TAPCELL_ROW_38_409
*3204 TAP_TAPCELL_ROW_39_410
*3205 TAP_TAPCELL_ROW_39_411
*3206 TAP_TAPCELL_ROW_39_412
*3207 TAP_TAPCELL_ROW_39_413
*3208 TAP_TAPCELL_ROW_39_414
*3209 TAP_TAPCELL_ROW_39_415
*3210 TAP_TAPCELL_ROW_39_416
*3211 TAP_TAPCELL_ROW_3_158
*3212 TAP_TAPCELL_ROW_3_159
*3213 TAP_TAPCELL_ROW_3_160
*3214 TAP_TAPCELL_ROW_3_161
*3215 TAP_TAPCELL_ROW_3_162
*3216 TAP_TAPCELL_ROW_3_163
*3217 TAP_TAPCELL_ROW_3_164
*3218 TAP_TAPCELL_ROW_40_417
*3219 TAP_TAPCELL_ROW_40_418
*3220 TAP_TAPCELL_ROW_40_419
*3221 TAP_TAPCELL_ROW_40_420
*3222 TAP_TAPCELL_ROW_40_421
*3223 TAP_TAPCELL_ROW_40_422
*3224 TAP_TAPCELL_ROW_40_423
*3225 TAP_TAPCELL_ROW_41_424
*3226 TAP_TAPCELL_ROW_41_425
*3227 TAP_TAPCELL_ROW_41_426
*3228 TAP_TAPCELL_ROW_41_427
*3229 TAP_TAPCELL_ROW_41_428
*3230 TAP_TAPCELL_ROW_41_429
*3231 TAP_TAPCELL_ROW_41_430
*3232 TAP_TAPCELL_ROW_42_431
*3233 TAP_TAPCELL_ROW_42_432
*3234 TAP_TAPCELL_ROW_42_433
*3235 TAP_TAPCELL_ROW_42_434
*3236 TAP_TAPCELL_ROW_42_435
*3237 TAP_TAPCELL_ROW_42_436
*3238 TAP_TAPCELL_ROW_42_437
*3239 TAP_TAPCELL_ROW_43_438
*3240 TAP_TAPCELL_ROW_43_439
*3241 TAP_TAPCELL_ROW_43_440
*3242 TAP_TAPCELL_ROW_43_441
*3243 TAP_TAPCELL_ROW_43_442
*3244 TAP_TAPCELL_ROW_43_443
*3245 TAP_TAPCELL_ROW_43_444
*3246 TAP_TAPCELL_ROW_44_445
*3247 TAP_TAPCELL_ROW_44_446
*3248 TAP_TAPCELL_ROW_44_447
*3249 TAP_TAPCELL_ROW_44_448
*3250 TAP_TAPCELL_ROW_44_449
*3251 TAP_TAPCELL_ROW_44_450
*3252 TAP_TAPCELL_ROW_44_451
*3253 TAP_TAPCELL_ROW_45_452
*3254 TAP_TAPCELL_ROW_45_453
*3255 TAP_TAPCELL_ROW_45_454
*3256 TAP_TAPCELL_ROW_45_455
*3257 TAP_TAPCELL_ROW_45_456
*3258 TAP_TAPCELL_ROW_45_457
*3259 TAP_TAPCELL_ROW_45_458
*3260 TAP_TAPCELL_ROW_46_459
*3261 TAP_TAPCELL_ROW_46_460
*3262 TAP_TAPCELL_ROW_46_461
*3263 TAP_TAPCELL_ROW_46_462
*3264 TAP_TAPCELL_ROW_46_463
*3265 TAP_TAPCELL_ROW_46_464
*3266 TAP_TAPCELL_ROW_46_465
*3267 TAP_TAPCELL_ROW_47_466
*3268 TAP_TAPCELL_ROW_47_467
*3269 TAP_TAPCELL_ROW_47_468
*3270 TAP_TAPCELL_ROW_47_469
*3271 TAP_TAPCELL_ROW_47_470
*3272 TAP_TAPCELL_ROW_47_471
*3273 TAP_TAPCELL_ROW_47_472
*3274 TAP_TAPCELL_ROW_48_473
*3275 TAP_TAPCELL_ROW_48_474
*3276 TAP_TAPCELL_ROW_48_475
*3277 TAP_TAPCELL_ROW_48_476
*3278 TAP_TAPCELL_ROW_48_477
*3279 TAP_TAPCELL_ROW_48_478
*3280 TAP_TAPCELL_ROW_48_479
*3281 TAP_TAPCELL_ROW_49_480
*3282 TAP_TAPCELL_ROW_49_481
*3283 TAP_TAPCELL_ROW_49_482
*3284 TAP_TAPCELL_ROW_49_483
*3285 TAP_TAPCELL_ROW_49_484
*3286 TAP_TAPCELL_ROW_49_485
*3287 TAP_TAPCELL_ROW_49_486
*3288 TAP_TAPCELL_ROW_4_165
*3289 TAP_TAPCELL_ROW_4_166
*3290 TAP_TAPCELL_ROW_4_167
*3291 TAP_TAPCELL_ROW_4_168
*3292 TAP_TAPCELL_ROW_4_169
*3293 TAP_TAPCELL_ROW_4_170
*3294 TAP_TAPCELL_ROW_4_171
*3295 TAP_TAPCELL_ROW_50_487
*3296 TAP_TAPCELL_ROW_50_488
*3297 TAP_TAPCELL_ROW_50_489
*3298 TAP_TAPCELL_ROW_50_490
*3299 TAP_TAPCELL_ROW_50_491
*3300 TAP_TAPCELL_ROW_50_492
*3301 TAP_TAPCELL_ROW_50_493
*3302 TAP_TAPCELL_ROW_51_494
*3303 TAP_TAPCELL_ROW_51_495
*3304 TAP_TAPCELL_ROW_51_496
*3305 TAP_TAPCELL_ROW_51_497
*3306 TAP_TAPCELL_ROW_51_498
*3307 TAP_TAPCELL_ROW_51_499
*3308 TAP_TAPCELL_ROW_51_500
*3309 TAP_TAPCELL_ROW_52_501
*3310 TAP_TAPCELL_ROW_52_502
*3311 TAP_TAPCELL_ROW_52_503
*3312 TAP_TAPCELL_ROW_52_504
*3313 TAP_TAPCELL_ROW_52_505
*3314 TAP_TAPCELL_ROW_52_506
*3315 TAP_TAPCELL_ROW_52_507
*3316 TAP_TAPCELL_ROW_53_508
*3317 TAP_TAPCELL_ROW_53_509
*3318 TAP_TAPCELL_ROW_53_510
*3319 TAP_TAPCELL_ROW_53_511
*3320 TAP_TAPCELL_ROW_53_512
*3321 TAP_TAPCELL_ROW_53_513
*3322 TAP_TAPCELL_ROW_53_514
*3323 TAP_TAPCELL_ROW_54_515
*3324 TAP_TAPCELL_ROW_54_516
*3325 TAP_TAPCELL_ROW_54_517
*3326 TAP_TAPCELL_ROW_54_518
*3327 TAP_TAPCELL_ROW_54_519
*3328 TAP_TAPCELL_ROW_54_520
*3329 TAP_TAPCELL_ROW_54_521
*3330 TAP_TAPCELL_ROW_55_522
*3331 TAP_TAPCELL_ROW_55_523
*3332 TAP_TAPCELL_ROW_55_524
*3333 TAP_TAPCELL_ROW_55_525
*3334 TAP_TAPCELL_ROW_55_526
*3335 TAP_TAPCELL_ROW_55_527
*3336 TAP_TAPCELL_ROW_55_528
*3337 TAP_TAPCELL_ROW_56_529
*3338 TAP_TAPCELL_ROW_56_530
*3339 TAP_TAPCELL_ROW_56_531
*3340 TAP_TAPCELL_ROW_56_532
*3341 TAP_TAPCELL_ROW_56_533
*3342 TAP_TAPCELL_ROW_56_534
*3343 TAP_TAPCELL_ROW_56_535
*3344 TAP_TAPCELL_ROW_57_536
*3345 TAP_TAPCELL_ROW_57_537
*3346 TAP_TAPCELL_ROW_57_538
*3347 TAP_TAPCELL_ROW_57_539
*3348 TAP_TAPCELL_ROW_57_540
*3349 TAP_TAPCELL_ROW_57_541
*3350 TAP_TAPCELL_ROW_57_542
*3351 TAP_TAPCELL_ROW_58_543
*3352 TAP_TAPCELL_ROW_58_544
*3353 TAP_TAPCELL_ROW_58_545
*3354 TAP_TAPCELL_ROW_58_546
*3355 TAP_TAPCELL_ROW_58_547
*3356 TAP_TAPCELL_ROW_58_548
*3357 TAP_TAPCELL_ROW_58_549
*3358 TAP_TAPCELL_ROW_59_550
*3359 TAP_TAPCELL_ROW_59_551
*3360 TAP_TAPCELL_ROW_59_552
*3361 TAP_TAPCELL_ROW_59_553
*3362 TAP_TAPCELL_ROW_59_554
*3363 TAP_TAPCELL_ROW_59_555
*3364 TAP_TAPCELL_ROW_59_556
*3365 TAP_TAPCELL_ROW_5_172
*3366 TAP_TAPCELL_ROW_5_173
*3367 TAP_TAPCELL_ROW_5_174
*3368 TAP_TAPCELL_ROW_5_175
*3369 TAP_TAPCELL_ROW_5_176
*3370 TAP_TAPCELL_ROW_5_177
*3371 TAP_TAPCELL_ROW_5_178
*3372 TAP_TAPCELL_ROW_60_557
*3373 TAP_TAPCELL_ROW_60_558
*3374 TAP_TAPCELL_ROW_60_559
*3375 TAP_TAPCELL_ROW_60_560
*3376 TAP_TAPCELL_ROW_60_561
*3377 TAP_TAPCELL_ROW_60_562
*3378 TAP_TAPCELL_ROW_60_563
*3379 TAP_TAPCELL_ROW_61_564
*3380 TAP_TAPCELL_ROW_61_565
*3381 TAP_TAPCELL_ROW_61_566
*3382 TAP_TAPCELL_ROW_61_567
*3383 TAP_TAPCELL_ROW_61_568
*3384 TAP_TAPCELL_ROW_61_569
*3385 TAP_TAPCELL_ROW_61_570
*3386 TAP_TAPCELL_ROW_62_571
*3387 TAP_TAPCELL_ROW_62_572
*3388 TAP_TAPCELL_ROW_62_573
*3389 TAP_TAPCELL_ROW_62_574
*3390 TAP_TAPCELL_ROW_62_575
*3391 TAP_TAPCELL_ROW_62_576
*3392 TAP_TAPCELL_ROW_62_577
*3393 TAP_TAPCELL_ROW_63_578
*3394 TAP_TAPCELL_ROW_63_579
*3395 TAP_TAPCELL_ROW_63_580
*3396 TAP_TAPCELL_ROW_63_581
*3397 TAP_TAPCELL_ROW_63_582
*3398 TAP_TAPCELL_ROW_63_583
*3399 TAP_TAPCELL_ROW_63_584
*3400 TAP_TAPCELL_ROW_64_585
*3401 TAP_TAPCELL_ROW_64_586
*3402 TAP_TAPCELL_ROW_64_587
*3403 TAP_TAPCELL_ROW_64_588
*3404 TAP_TAPCELL_ROW_64_589
*3405 TAP_TAPCELL_ROW_64_590
*3406 TAP_TAPCELL_ROW_64_591
*3407 TAP_TAPCELL_ROW_64_592
*3408 TAP_TAPCELL_ROW_64_593
*3409 TAP_TAPCELL_ROW_64_594
*3410 TAP_TAPCELL_ROW_64_595
*3411 TAP_TAPCELL_ROW_64_596
*3412 TAP_TAPCELL_ROW_64_597
*3413 TAP_TAPCELL_ROW_64_598
*3414 TAP_TAPCELL_ROW_6_179
*3415 TAP_TAPCELL_ROW_6_180
*3416 TAP_TAPCELL_ROW_6_181
*3417 TAP_TAPCELL_ROW_6_182
*3418 TAP_TAPCELL_ROW_6_183
*3419 TAP_TAPCELL_ROW_6_184
*3420 TAP_TAPCELL_ROW_6_185
*3421 TAP_TAPCELL_ROW_7_186
*3422 TAP_TAPCELL_ROW_7_187
*3423 TAP_TAPCELL_ROW_7_188
*3424 TAP_TAPCELL_ROW_7_189
*3425 TAP_TAPCELL_ROW_7_190
*3426 TAP_TAPCELL_ROW_7_191
*3427 TAP_TAPCELL_ROW_7_192
*3428 TAP_TAPCELL_ROW_8_193
*3429 TAP_TAPCELL_ROW_8_194
*3430 TAP_TAPCELL_ROW_8_195
*3431 TAP_TAPCELL_ROW_8_196
*3432 TAP_TAPCELL_ROW_8_197
*3433 TAP_TAPCELL_ROW_8_198
*3434 TAP_TAPCELL_ROW_8_199
*3435 TAP_TAPCELL_ROW_9_200
*3436 TAP_TAPCELL_ROW_9_201
*3437 TAP_TAPCELL_ROW_9_202
*3438 TAP_TAPCELL_ROW_9_203
*3439 TAP_TAPCELL_ROW_9_204
*3440 TAP_TAPCELL_ROW_9_205
*3441 TAP_TAPCELL_ROW_9_206
*3442 _06_
*3443 _07_
*3444 _08_
*3445 _09_
*3446 _10_
*3447 _11_
*3448 _12_
*3449 _13_
*3450 _14_
*3451 _15_
*3452 clkbuf_0_clk
*3453 clkbuf_1_0__f_clk
*3454 clkbuf_1_1__f_clk
*3455 hold1
*3456 hold2
*3457 hold3
*3458 hold4
*3459 hold5
*3460 hold6
*3461 input1
*3462 output2
*3463 output3
*3464 output4
*3465 output5

*PORTS
clk I
count[0] O
count[1] O
count[2] O
count[3] O
rst_n I

*D_NET *3 0.018324
*CONN
*P clk I
*I *3452:A I *D sky130_fd_sc_hd__clkbuf_16
*CAP
1 clk 0.00916198
2 *3452:A 0
3 *3:9 0.00916198
*RES
1 clk *3:9 41.1931 
2 *3:9 *3452:A 38 
*END

*D_NET *4 0.000606191
*CONN
*P count[0] O
*I *3462:X O *D sky130_fd_sc_hd__buf_2
*CAP
1 count[0] 0.000240882
2 *3462:X 0.000240882
3 count[0] count[3] 8.84656e-05
4 count[0] *21:53 3.59619e-05
*RES
1 *3462:X count[0] 47.8691 
*END

*D_NET *5 0.00153597
*CONN
*P count[1] O
*I *3463:X O *D sky130_fd_sc_hd__buf_2
*CAP
1 count[1] 0.000576429
2 *3463:X 0.000576429
3 count[1] count[3] 8.97484e-05
4 count[1] *3449:RESET_B 0.000126866
5 count[1] *8:11 0.000123968
6 count[1] *15:23 4.25335e-05
*RES
1 *3463:X count[1] 49.5179 
*END

*D_NET *6 0.000818619
*CONN
*P count[2] O
*I *3464:X O *D sky130_fd_sc_hd__buf_2
*CAP
1 count[2] 0.000365621
2 *3464:X 0.000365621
3 count[2] *3455:A 0
4 count[2] *3464:A 0
5 count[2] *8:11 8.73764e-05
*RES
1 *3464:X count[2] 49.9819 
*END

*D_NET *7 0.000723254
*CONN
*P count[3] O
*I *3465:X O *D sky130_fd_sc_hd__buf_2
*CAP
1 count[3] 0.000241531
2 *3465:X 0.000241531
3 count[3] *21:53 6.19771e-05
4 count[0] count[3] 8.84656e-05
5 count[1] count[3] 8.97484e-05
*RES
1 *3465:X count[3] 48.5734 
*END

*D_NET *8 0.00194157
*CONN
*P rst_n I
*I *3461:A I *D sky130_fd_sc_hd__buf_1
*CAP
1 rst_n 0.000516786
2 *3461:A 0
3 *8:11 0.000516786
4 *8:11 *3464:A 0.000337339
5 *8:11 *21:10 1.01436e-05
6 *8:11 *21:21 0.000218962
7 *8:11 *21:36 0.000130212
8 count[1] *8:11 0.000123968
9 count[2] *8:11 8.73764e-05
*RES
1 rst_n *8:11 28.9916 
2 *8:11 *3461:A 23 
*END

*D_NET *9 0.00212004
*CONN
*I *3448:D I *D sky130_fd_sc_hd__dfrtp_1
*I *3442:Y O *D sky130_fd_sc_hd__inv_2
*CAP
1 *3448:D 0
2 *3442:Y 0
3 *9:12 0.000552436
4 *9:6 0.000552436
5 *9:12 *15:23 0
6 *9:12 *17:18 0.000287948
7 *9:12 *28:8 0.000727218
*RES
1 *3442:Y *9:6 38 
2 *9:6 *9:12 29.5 
3 *9:12 *3448:D 23 
*END

*D_NET *10 0.000582205
*CONN
*I *3457:A I *D sky130_fd_sc_hd__dlygate4sd3_1
*I *3447:X O *D sky130_fd_sc_hd__xor2_1
*CAP
1 *3457:A 0.000109381
2 *3447:X 0.000109381
3 *3457:A *3444:C 6.17437e-06
4 *3457:A *3447:B 0.000148688
5 *3457:A *14:10 0.000157356
6 *3457:A *21:47 5.12254e-05
*RES
1 *3447:X *3457:A 49.9564 
*END

*D_NET *11 0.000681594
*CONN
*I *3450:D I *D sky130_fd_sc_hd__dfrtp_1
*I *3445:Y O *D sky130_fd_sc_hd__nor2_1
*CAP
1 *3450:D 0
2 *3445:Y 0.000254921
3 *11:14 0.000254921
4 *11:14 *3445:B 2.93431e-05
5 *11:14 *3446:B 0.000142409
6 *11:14 *16:27 0
*RES
1 *3445:Y *11:14 42.5986 
2 *11:14 *3450:D 38 
*END

*D_NET *12 0.000361634
*CONN
*I *3451:D I *D sky130_fd_sc_hd__dfrtp_1
*I *3446:X O *D sky130_fd_sc_hd__xor2_1
*CAP
1 *3451:D 0.00013833
2 *3446:X 0.00013833
3 *3451:D *3446:A 8.49734e-05
*RES
1 *3446:X *3451:D 48.6929 
*END

*D_NET *13 0.000906091
*CONN
*I *3460:A I *D sky130_fd_sc_hd__dlygate4sd3_1
*I *3443:Y O *D sky130_fd_sc_hd__a21oi_1
*CAP
1 *3460:A 0
2 *3443:Y 0.000232217
3 *13:10 0.000232217
4 *13:10 *3443:A1 0.00016533
5 *13:10 *19:8 8.25811e-05
6 *13:10 *22:12 0.000193746
*RES
1 *3443:Y *13:10 43.3443 
2 *13:10 *3460:A 38 
*END

*D_NET *14 0.00369517
*CONN
*I *3445:B I *D sky130_fd_sc_hd__nor2_1
*I *3446:B I *D sky130_fd_sc_hd__xor2_1
*I *3444:X O *D sky130_fd_sc_hd__and3_1
*CAP
1 *3445:B 6.35954e-05
2 *3446:B 0.00041801
3 *3444:X 0.00088009
4 *14:14 0.000680251
5 *14:10 0.00107874
6 *3446:B *16:27 0
7 *3446:B *17:18 0
8 *14:10 *3444:C 9.5877e-05
9 *14:10 *3447:A 0.000140259
10 *14:10 *3447:B 9.24795e-06
11 *14:14 *17:18 0
12 *3457:A *14:10 0.000157356
13 *11:14 *3445:B 2.93431e-05
14 *11:14 *3446:B 0.000142409
*RES
1 *3444:X *14:10 37.6036 
2 *14:10 *14:14 18.6664 
3 *14:14 *3446:B 45.0014 
4 *14:14 *3445:B 39.0979 
*END

*D_NET *15 0.00311693
*CONN
*I *3453:A I *D sky130_fd_sc_hd__clkbuf_16
*I *3454:A I *D sky130_fd_sc_hd__clkbuf_16
*I *3452:X O *D sky130_fd_sc_hd__clkbuf_16
*CAP
1 *3453:A 0
2 *3454:A 0
3 *3452:X 0
4 *15:23 0.000771659
5 *15:12 0.0006449
6 *15:4 0.00141656
7 *15:12 *3449:RESET_B 0
8 *15:12 *17:18 0
9 *15:12 *20:6 7.24365e-05
10 *15:12 *26:10 0.000110228
11 *15:12 *28:8 5.86165e-05
12 *15:23 *3448:RESET_B 0
13 *15:23 *3449:RESET_B 0
14 *15:23 *18:17 0
15 *15:23 *18:24 0
16 *15:23 *25:10 0
17 *15:23 *28:8 0
18 count[1] *15:23 4.25335e-05
19 *9:12 *15:23 0
*RES
1 *3452:X *15:4 23 
2 *15:4 *15:12 42.0557 
3 *15:12 *3454:A 23 
4 *15:4 *15:23 44.5829 
5 *15:23 *3453:A 23 
*END

*D_NET *16 0.00230438
*CONN
*I *3450:CLK I *D sky130_fd_sc_hd__dfrtp_1
*I *3448:CLK I *D sky130_fd_sc_hd__dfrtp_1
*I *3453:X O *D sky130_fd_sc_hd__clkbuf_16
*CAP
1 *3450:CLK 0
2 *3448:CLK 6.80678e-05
3 *3453:X 0.000221843
4 *16:27 0.000795963
5 *16:10 0.00108587
6 *16:27 *17:18 0.000132631
7 *3446:B *16:27 0
8 *11:14 *16:27 0
*RES
1 *3453:X *16:10 41.3557 
2 *16:10 *3448:CLK 39.0979 
3 *16:10 *16:27 28.63 
4 *16:27 *3450:CLK 23 
*END

*D_NET *17 0.00325372
*CONN
*I *3449:CLK I *D sky130_fd_sc_hd__dfrtp_1
*I *3451:CLK I *D sky130_fd_sc_hd__dfrtp_1
*I *3454:X O *D sky130_fd_sc_hd__clkbuf_16
*CAP
1 *3449:CLK 0
2 *3451:CLK 0
3 *3454:X 0.000205639
4 *17:18 0.000479622
5 *17:12 0.000987039
6 *17:8 0.000713056
7 *17:8 *3456:A 0.000197479
8 *17:8 *21:53 1.47563e-05
9 *17:12 *3449:D 0.000149822
10 *17:12 *3465:A 5.50106e-05
11 *17:18 *28:8 3.07161e-05
12 *3446:B *17:18 0
13 *9:12 *17:18 0.000287948
14 *14:14 *17:18 0
15 *15:12 *17:18 0
16 *16:27 *17:18 0.000132631
*RES
1 *3454:X *17:8 42.7229 
2 *17:8 *17:12 24.6736 
3 *17:12 *17:18 41.4136 
4 *17:18 *3451:CLK 23 
5 *17:12 *3449:CLK 23 
*END

*D_NET *18 0.0027667
*CONN
*I *3449:RESET_B I *D sky130_fd_sc_hd__dfrtp_1
*I *3450:RESET_B I *D sky130_fd_sc_hd__dfrtp_1
*I *3451:RESET_B I *D sky130_fd_sc_hd__dfrtp_1
*I *3448:RESET_B I *D sky130_fd_sc_hd__dfrtp_1
*I *3461:X O *D sky130_fd_sc_hd__buf_1
*CAP
1 *3449:RESET_B 0.000349233
2 *3450:RESET_B 0.000189129
3 *3451:RESET_B 0
4 *3448:RESET_B 0.000134056
5 *3461:X 3.57483e-05
6 *18:24 0.000695039
7 *18:17 0.000289641
8 *18:8 0.000302768
9 *3448:RESET_B *3464:A 0
10 *3448:RESET_B *21:10 5.56203e-05
11 *3449:RESET_B *3444:C 0
12 *3449:RESET_B *3465:A 0
13 *3449:RESET_B *21:36 0.000154556
14 *3449:RESET_B *26:10 0
15 *3449:RESET_B *27:8 4.08537e-05
16 *3450:RESET_B *23:6 0.000100733
17 *18:8 *3458:A 2.93845e-05
18 *18:17 *21:10 3.0647e-05
19 *18:17 *21:21 7.70038e-05
20 *18:24 *21:21 3.55887e-05
21 *18:24 *21:36 0.000119828
22 count[1] *3449:RESET_B 0.000126866
23 *15:12 *3449:RESET_B 0
24 *15:23 *3448:RESET_B 0
25 *15:23 *3449:RESET_B 0
26 *15:23 *18:17 0
27 *15:23 *18:24 0
*RES
1 *3461:X *18:8 38.6214 
2 *18:8 *3448:RESET_B 17.9621 
3 *18:8 *18:17 2.96214 
4 *18:17 *3451:RESET_B 15 
5 *18:17 *18:24 4.01857 
6 *18:24 *3450:RESET_B 18.4075 
7 *18:24 *3449:RESET_B 22.54 
*END

*D_NET *19 0.000329333
*CONN
*I *3443:B1 I *D sky130_fd_sc_hd__a21oi_1
*I *3459:X O *D sky130_fd_sc_hd__dlygate4sd3_1
*CAP
1 *3443:B1 0
2 *3459:X 0.000101242
3 *19:8 0.000101242
4 *19:8 *3443:A1 4.42688e-05
5 *13:10 *19:8 8.25811e-05
*RES
1 *3459:X *19:8 40.2579 
2 *19:8 *3443:B1 38 
*END

*D_NET *20 0.00130473
*CONN
*I *3445:A I *D sky130_fd_sc_hd__nor2_1
*I *3460:X O *D sky130_fd_sc_hd__dlygate4sd3_1
*CAP
1 *3445:A 0
2 *3460:X 0.000616145
3 *20:6 0.000616145
4 *15:12 *20:6 7.24365e-05
*RES
1 *3460:X *20:6 33.15 
2 *20:6 *3445:A 23 
*END

*D_NET *21 0.00556929
*CONN
*I *3444:B I *D sky130_fd_sc_hd__and3_1
*I *3462:A I *D sky130_fd_sc_hd__buf_2
*I *3447:B I *D sky130_fd_sc_hd__xor2_1
*I *3443:A2 I *D sky130_fd_sc_hd__a21oi_1
*I *3458:A I *D sky130_fd_sc_hd__dlygate4sd3_1
*I *3448:Q O *D sky130_fd_sc_hd__dfrtp_1
*CAP
1 *3444:B 0
2 *3462:A 0
3 *3447:B 0.000327612
4 *3443:A2 0.000184238
5 *3458:A 0.000126505
6 *3448:Q 0.000203745
7 *21:53 0.000239334
8 *21:47 0.000469257
9 *21:36 0.000800821
10 *21:21 0.000539448
11 *21:10 0.000442173
12 *3447:B *3447:A 4.06849e-05
13 *3458:A *25:10 0.000145784
14 *21:10 *3464:A 9.75063e-05
15 *21:36 *3444:C 0.000175929
16 *21:36 *3464:A 3.44147e-05
17 *21:47 *3444:A 2.64616e-05
18 *21:47 *3444:C 2.69859e-05
19 *21:53 *3456:A 0.000277714
20 *21:53 *22:10 0.000164291
21 *21:53 *22:12 6.25829e-05
22 count[0] *21:53 3.59619e-05
23 count[3] *21:53 6.19771e-05
24 *3448:RESET_B *21:10 5.56203e-05
25 *3449:RESET_B *21:36 0.000154556
26 *3457:A *3447:B 0.000148688
27 *3457:A *21:47 5.12254e-05
28 *8:11 *21:10 1.01436e-05
29 *8:11 *21:21 0.000218962
30 *8:11 *21:36 0.000130212
31 *14:10 *3447:B 9.24795e-06
32 *17:8 *21:53 1.47563e-05
33 *18:8 *3458:A 2.93845e-05
34 *18:17 *21:10 3.0647e-05
35 *18:17 *21:21 7.70038e-05
36 *18:24 *21:21 3.55887e-05
37 *18:24 *21:36 0.000119828
*RES
1 *3448:Q *21:10 41.8321 
2 *21:10 *3458:A 41.0036 
3 *21:10 *21:21 2.96214 
4 *21:21 *3443:A2 40.5479 
5 *21:21 *21:36 22.54 
6 *21:36 *3447:B 28.2821 
7 *21:36 *21:47 3.00357 
8 *21:47 *21:53 36.8357 
9 *21:53 *3462:A 23 
10 *21:47 *3444:B 23 
*END

*D_NET *22 0.00342659
*CONN
*I *3456:A I *D sky130_fd_sc_hd__dlygate4sd3_1
*I *3444:A I *D sky130_fd_sc_hd__and3_1
*I *3463:A I *D sky130_fd_sc_hd__buf_2
*I *3443:A1 I *D sky130_fd_sc_hd__a21oi_1
*I *3449:Q O *D sky130_fd_sc_hd__dfrtp_1
*CAP
1 *3456:A 8.21431e-05
2 *3444:A 0.000130629
3 *3463:A 0.000180073
4 *3443:A1 9.29475e-05
5 *3449:Q 8.25057e-05
6 *22:12 0.000451758
7 *22:10 0.000387377
8 *22:8 0.000242659
9 *3443:A1 *3455:A 4.78793e-05
10 *3443:A1 *3465:A 7.90067e-05
11 *3444:A *3444:C 1.94052e-05
12 *3456:A *3465:A 2.60152e-05
13 *3463:A *23:6 9.75779e-05
14 *3463:A *23:15 5.50049e-05
15 *22:8 *3465:A 5.12254e-05
16 *22:10 *3465:A 7.20312e-05
17 *22:12 *3465:A 0.000196479
18 *13:10 *3443:A1 0.00016533
19 *13:10 *22:12 0.000193746
20 *17:8 *3456:A 0.000197479
21 *19:8 *3443:A1 4.42688e-05
22 *21:47 *3444:A 2.64616e-05
23 *21:53 *3456:A 0.000277714
24 *21:53 *22:10 0.000164291
25 *21:53 *22:12 6.25829e-05
*RES
1 *3449:Q *22:8 39.0979 
2 *22:8 *22:10 2.25786 
3 *22:10 *22:12 5.42714 
4 *22:12 *3443:A1 41.3143 
5 *22:12 *3463:A 41.0036 
6 *22:10 *3444:A 40.4236 
7 *22:8 *3456:A 41.6664 
*END

*D_NET *23 0.0037107
*CONN
*I *3444:C I *D sky130_fd_sc_hd__and3_1
*I *3464:A I *D sky130_fd_sc_hd__buf_2
*I *3459:A I *D sky130_fd_sc_hd__dlygate4sd3_1
*I *3450:Q O *D sky130_fd_sc_hd__dfrtp_1
*CAP
1 *3444:C 0.000303668
2 *3464:A 0.000386895
3 *3459:A 0
4 *3450:Q 0.000171733
5 *23:15 0.000718289
6 *23:6 0.000199459
7 *3444:C *3465:A 0.000480841
8 *3464:A *3455:A 0.000276775
9 *3464:A *3465:A 0.00012609
10 count[2] *3464:A 0
11 *3444:A *3444:C 1.94052e-05
12 *3448:RESET_B *3464:A 0
13 *3449:RESET_B *3444:C 0
14 *3450:RESET_B *23:6 0.000100733
15 *3457:A *3444:C 6.17437e-06
16 *3463:A *23:6 9.75779e-05
17 *3463:A *23:15 5.50049e-05
18 *8:11 *3464:A 0.000337339
19 *14:10 *3444:C 9.5877e-05
20 *21:10 *3464:A 9.75063e-05
21 *21:36 *3444:C 0.000175929
22 *21:36 *3464:A 3.44147e-05
23 *21:47 *3444:C 2.69859e-05
*RES
1 *3450:Q *23:6 26.48 
2 *23:6 *3459:A 23 
3 *23:6 *23:15 15.6214 
4 *23:15 *3464:A 48.6471 
5 *23:15 *3444:C 46.3686 
*END

*D_NET *24 0.00281487
*CONN
*I *3465:A I *D sky130_fd_sc_hd__buf_2
*I *3455:A I *D sky130_fd_sc_hd__dlygate4sd3_1
*I *3451:Q O *D sky130_fd_sc_hd__dfrtp_1
*CAP
1 *3465:A 0.000430773
2 *3455:A 0.000270985
3 *3451:Q 0
4 *24:6 0.000701759
5 *3465:A *26:10 0
6 count[2] *3455:A 0
7 *3443:A1 *3455:A 4.78793e-05
8 *3443:A1 *3465:A 7.90067e-05
9 *3444:C *3465:A 0.000480841
10 *3449:RESET_B *3465:A 0
11 *3456:A *3465:A 2.60152e-05
12 *3464:A *3455:A 0.000276775
13 *3464:A *3465:A 0.00012609
14 *17:12 *3465:A 5.50106e-05
15 *22:8 *3465:A 5.12254e-05
16 *22:10 *3465:A 7.20312e-05
17 *22:12 *3465:A 0.000196479
*RES
1 *3451:Q *24:6 38 
2 *24:6 *3455:A 44.1936 
3 *24:6 *3465:A 49.9314 
*END

*D_NET *25 0.00204027
*CONN
*I *3446:A I *D sky130_fd_sc_hd__xor2_1
*I *3455:X O *D sky130_fd_sc_hd__dlygate4sd3_1
*CAP
1 *3446:A 0.000356334
2 *3455:X 0.000530596
3 *25:10 0.00088693
4 *25:10 *28:8 3.56537e-05
5 *3451:D *3446:A 8.49734e-05
6 *3458:A *25:10 0.000145784
7 *15:23 *25:10 0
*RES
1 *3455:X *25:10 45.4157 
2 *25:10 *3446:A 44.0279 
*END

*D_NET *26 0.00125677
*CONN
*I *3447:A I *D sky130_fd_sc_hd__xor2_1
*I *3456:X O *D sky130_fd_sc_hd__dlygate4sd3_1
*CAP
1 *3447:A 4.44028e-05
2 *3456:X 0.000425696
3 *26:10 0.000470099
4 *26:10 *27:8 2.54046e-05
5 *3447:B *3447:A 4.06849e-05
6 *3449:RESET_B *26:10 0
7 *3465:A *26:10 0
8 *14:10 *3447:A 0.000140259
9 *15:12 *26:10 0.000110228
*RES
1 *3456:X *26:10 45.25 
2 *26:10 *3447:A 39.5743 
*END

*D_NET *27 0.000988705
*CONN
*I *3449:D I *D sky130_fd_sc_hd__dfrtp_1
*I *3457:X O *D sky130_fd_sc_hd__dlygate4sd3_1
*CAP
1 *3449:D 0.000331942
2 *3457:X 5.43703e-05
3 *27:8 0.000386313
4 *3449:RESET_B *27:8 4.08537e-05
5 *17:12 *3449:D 0.000149822
6 *26:10 *27:8 2.54046e-05
*RES
1 *3457:X *27:8 39.2014 
2 *27:8 *3449:D 42.93 
*END

*D_NET *28 0.00157981
*CONN
*I *3442:A I *D sky130_fd_sc_hd__inv_2
*I *3458:X O *D sky130_fd_sc_hd__dlygate4sd3_1
*CAP
1 *3442:A 0
2 *3458:X 0.000363802
3 *28:8 0.000363802
4 *9:12 *28:8 0.000727218
5 *15:12 *28:8 5.86165e-05
6 *15:23 *28:8 0
7 *17:18 *28:8 3.07161e-05
8 *25:10 *28:8 3.56537e-05
*RES
1 *3458:X *28:8 48.7093 
2 *28:8 *3442:A 38 
*END
