*SPEF "ieee 1481-1999"
*DESIGN "param_counter"
*DATE "00:16:09 Monday December 08, 2025"
*VENDOR "The OpenROAD Project"
*PROGRAM "OpenROAD"
*VERSION "edf00dff99f6c40d67a30c0e22a8191c5d2ed9d6"
*DESIGN_FLOW "NAME_SCOPE LOCAL" "PIN_CAP NONE"
*DIVIDER /
*DELIMITER :
*BUS_DELIMITER []
*T_UNIT 1 NS
*C_UNIT 1 PF
*R_UNIT 1 OHM
*L_UNIT 1 HENRY

*NAME_MAP
*3 clk
*4 count[0]
*5 count[1]
*6 count[2]
*7 count[3]
*8 en
*9 load
*10 load_value[0]
*11 load_value[1]
*12 load_value[2]
*13 load_value[3]
*14 rst_n
*15 _00_
*16 _01_
*17 _02_
*18 _03_
*19 _04_
*20 _05_
*21 _06_
*22 _07_
*23 _08_
*24 _09_
*25 _10_
*26 _11_
*27 _12_
*28 _13_
*29 _14_
*30 clknet_0_clk
*31 clknet_1_0__leaf_clk
*32 clknet_1_1__leaf_clk
*33 net1
*34 net10
*35 net11
*36 net12
*37 net2
*38 net3
*39 net4
*40 net5
*41 net6
*42 net7
*43 net8
*44 net9
*45 FILLER_0_18
*46 FILLER_0_27
*47 FILLER_0_29
*48 FILLER_0_41
*49 FILLER_0_6
*50 FILLER_1_13
*51 FILLER_1_29
*52 FILLER_1_41
*53 FILLER_2_27
*54 FILLER_2_37
*55 FILLER_3_28
*56 FILLER_4_3
*57 FILLER_4_37
*58 FILLER_5_3
*59 FILLER_7_17
*60 FILLER_7_26
*61 FILLER_7_29
*62 FILLER_7_41
*63 PHY_EDGE_ROW_0_Left_8
*64 PHY_EDGE_ROW_0_Right_0
*65 PHY_EDGE_ROW_1_Left_9
*66 PHY_EDGE_ROW_1_Right_1
*67 PHY_EDGE_ROW_2_Left_10
*68 PHY_EDGE_ROW_2_Right_2
*69 PHY_EDGE_ROW_3_Left_11
*70 PHY_EDGE_ROW_3_Right_3
*71 PHY_EDGE_ROW_4_Left_12
*72 PHY_EDGE_ROW_4_Right_4
*73 PHY_EDGE_ROW_5_Left_13
*74 PHY_EDGE_ROW_5_Right_5
*75 PHY_EDGE_ROW_6_Left_14
*76 PHY_EDGE_ROW_6_Right_6
*77 PHY_EDGE_ROW_7_Left_15
*78 PHY_EDGE_ROW_7_Right_7
*79 TAP_TAPCELL_ROW_0_16
*80 TAP_TAPCELL_ROW_2_17
*81 TAP_TAPCELL_ROW_4_18
*82 TAP_TAPCELL_ROW_6_19
*83 TAP_TAPCELL_ROW_7_20
*84 _15_
*85 _16_
*86 _17_
*87 _18_
*88 _19_
*89 _20_
*90 _21_
*91 _22_
*92 _23_
*93 _24_
*94 _25_
*95 _26_
*96 _27_
*97 _28_
*98 _29_
*99 _30_
*100 _31_
*101 _32_
*102 _33_
*103 clkbuf_0_clk
*104 clkbuf_1_0__f_clk
*105 clkbuf_1_1__f_clk
*106 fanout12
*107 input1
*108 input2
*109 input3
*110 input4
*111 input5
*112 input6
*113 input7
*114 output10
*115 output11
*116 output8
*117 output9

*PORTS
clk I
count[0] O
count[1] O
count[2] O
count[3] O
en I
load I
load_value[0] I
load_value[1] I
load_value[2] I
load_value[3] I
rst_n I

*D_NET *3 0.000893891
*CONN
*P clk I
*I *103:A I *D sky130_fd_sc_hd__clkbuf_16
*CAP
1 clk 0.000324269
2 *103:A 0.000324269
3 *103:A count[0] 3.6993e-05
4 *103:A *86:A2 8.40213e-05
5 *103:A *86:B1 3.00381e-05
6 *103:A *101:CLK 0
7 *103:A *111:A 3.45293e-05
8 *103:A *21:12 4.99619e-05
9 *103:A *33:23 9.80943e-06
*RES
1 clk *103:A 8.98043 
*END

*D_NET *4 0.00196632
*CONN
*P count[0] O
*I *116:X O *D sky130_fd_sc_hd__buf_2
*CAP
1 count[0] 0.00054789
2 *116:X 0.00054789
3 count[0] *95:A1_N 6.9003e-05
4 count[0] *101:CLK 0.000224159
5 count[0] *101:D 9.20976e-05
6 count[0] *107:A 2.24901e-05
7 count[0] *111:A 0
8 count[0] *114:A 2.50602e-05
9 count[0] *33:14 0.00010467
10 count[0] *43:29 0.000148475
11 count[0] *43:48 0.000147595
12 *103:A count[0] 3.6993e-05
*RES
1 *116:X count[0] 13.2433 
*END

*D_NET *5 0.00049076
*CONN
*P count[1] O
*I *117:X O *D sky130_fd_sc_hd__buf_2
*CAP
1 count[1] 0.000144045
2 *117:X 0.000144045
3 count[1] *110:A 8.95652e-05
4 count[1] *112:A 0.000113105
*RES
1 *117:X count[1] 4.90503 
*END

*D_NET *6 0.000658473
*CONN
*P count[2] O
*I *114:X O *D sky130_fd_sc_hd__buf_2
*CAP
1 count[2] 0.000313532
2 *114:X 0.000313532
3 count[2] *111:A 3.14094e-05
*RES
1 *114:X count[2] 7.1793 
*END

*D_NET *7 0.000461886
*CONN
*P count[3] O
*I *115:X O *D sky130_fd_sc_hd__buf_2
*CAP
1 count[3] 0.00018293
2 *115:X 0.00018293
3 count[3] *112:A 8.45478e-05
4 count[3] *35:12 1.1477e-05
*RES
1 *115:X count[3] 4.90503 
*END

*D_NET *8 0.00065984
*CONN
*P en I
*I *107:A I *D sky130_fd_sc_hd__buf_1
*CAP
1 en 0.00030216
2 *107:A 0.00030216
3 *107:A *108:A 3.30292e-05
4 *107:A *33:14 0
5 *107:A *37:12 0
6 count[0] *107:A 2.24901e-05
*RES
1 en *107:A 7.8543 
*END

*D_NET *9 0.000758234
*CONN
*P load I
*I *108:A I *D sky130_fd_sc_hd__clkbuf_1
*CAP
1 load 0.000362603
2 *108:A 0.000362603
3 *108:A *37:12 0
4 *107:A *108:A 3.30292e-05
*RES
1 load *108:A 8.6193 
*END

*D_NET *10 0.00087992
*CONN
*P load_value[0] I
*I *109:A I *D sky130_fd_sc_hd__clkbuf_1
*CAP
1 load_value[0] 0.000430768
2 *109:A 0.000430768
3 *109:A *87:A2 1.83847e-05
*RES
1 load_value[0] *109:A 11.04 
*END

*D_NET *11 0.00112929
*CONN
*P load_value[1] I
*I *110:A I *D sky130_fd_sc_hd__clkbuf_1
*CAP
1 load_value[1] 0.000334672
2 *110:A 0.000334672
3 *110:A *91:A2 0
4 *110:A *102:RESET_B 0
5 *110:A *112:A 2.55029e-05
6 *110:A *113:A 8.53361e-05
7 *110:A *117:A 8.6076e-05
8 *110:A *44:12 0.000127757
9 *110:A *44:25 4.57056e-05
10 count[1] *110:A 8.95652e-05
*RES
1 load_value[1] *110:A 8.71503 
*END

*D_NET *12 0.00143744
*CONN
*P load_value[2] I
*I *111:A I *D sky130_fd_sc_hd__clkbuf_1
*CAP
1 load_value[2] 0.00061365
2 *111:A 0.00061365
3 *111:A *93:B 0
4 *111:A *94:A4 0
5 *111:A *116:A 0.000144202
6 count[0] *111:A 0
7 count[2] *111:A 3.14094e-05
8 *103:A *111:A 3.45293e-05
*RES
1 load_value[2] *111:A 8.23443 
*END

*D_NET *13 0.00119648
*CONN
*P load_value[3] I
*I *112:A I *D sky130_fd_sc_hd__clkbuf_1
*CAP
1 load_value[3] 0.000413291
2 *112:A 0.000413291
3 *112:A *102:RESET_B 0
4 *112:A *117:A 4.94474e-05
5 *112:A *44:25 9.72897e-05
6 count[1] *112:A 0.000113105
7 count[3] *112:A 8.45478e-05
8 *110:A *112:A 2.55029e-05
*RES
1 load_value[3] *112:A 9.1783 
*END

*D_NET *14 0.000404068
*CONN
*P rst_n I
*I *113:A I *D sky130_fd_sc_hd__dlymetal6s2s_1
*CAP
1 rst_n 0.000159366
2 *113:A 0.000159366
3 *113:A *99:RESET_B 0
4 *110:A *113:A 8.53361e-05
*RES
1 rst_n *113:A 4.84677 
*END

*D_NET *15 0.000191121
*CONN
*I *99:D I *D sky130_fd_sc_hd__dfrtp_1
*I *88:X O *D sky130_fd_sc_hd__o31a_1
*CAP
1 *99:D 5.34991e-05
2 *88:X 5.34991e-05
3 *99:D *95:B1 0
4 *99:D *21:12 0
5 *99:D *33:14 1.34361e-05
6 *99:D *37:12 7.06865e-05
*RES
1 *88:X *99:D 8.325 
*END

*D_NET *16 0.00050868
*CONN
*I *100:D I *D sky130_fd_sc_hd__dfrtp_1
*I *91:X O *D sky130_fd_sc_hd__o211a_1
*CAP
1 *100:D 0.000192697
2 *91:X 0.000192697
3 *100:D *91:A2 9.47017e-05
4 *100:D *92:B1 2.85837e-05
5 *100:D *36:45 0
*RES
1 *91:X *100:D 10.065 
*END

*D_NET *17 0.000379802
*CONN
*I *101:D I *D sky130_fd_sc_hd__dfrtp_1
*I *95:X O *D sky130_fd_sc_hd__a2bb2o_1
*CAP
1 *101:D 0.000115511
2 *95:X 0.000115511
3 *101:D *95:A1_N 4.81513e-05
4 *101:D *43:48 8.53113e-06
5 count[0] *101:D 9.20976e-05
*RES
1 *95:X *101:D 9.12 
*END

*D_NET *18 0.000494449
*CONN
*I *102:D I *D sky130_fd_sc_hd__dfrtp_1
*I *98:X O *D sky130_fd_sc_hd__o221a_1
*CAP
1 *102:D 0.000118536
2 *98:X 0.000118536
3 *102:D *96:A 4.18603e-06
4 *102:D *100:CLK 9.50342e-06
5 *102:D *101:RESET_B 0.000160119
6 *102:D *102:CLK 8.35683e-05
*RES
1 *98:X *102:D 9.81 
*END

*D_NET *19 0.00231641
*CONN
*I *98:A1 I *D sky130_fd_sc_hd__o221a_1
*I *89:A I *D sky130_fd_sc_hd__nand4_1
*I *91:A1 I *D sky130_fd_sc_hd__o211a_1
*I *84:Y O *D sky130_fd_sc_hd__inv_2
*CAP
1 *98:A1 0.000144008
2 *89:A 1.37561e-05
3 *91:A1 7.4434e-05
4 *84:Y 0.000105054
5 *19:23 0.000313687
6 *19:10 0.000335411
7 *89:A *92:B1 2.75229e-05
8 *89:A *104:A 2.75229e-05
9 *91:A1 *91:A2 3.7837e-05
10 *91:A1 *91:B1 8.82557e-05
11 *91:A1 *91:C1 4.82919e-05
12 *91:A1 *99:RESET_B 0.000274245
13 *98:A1 *94:A3 0.000135539
14 *98:A1 *104:A 0.000157595
15 *98:A1 *105:A 0.000172845
16 *98:A1 *36:45 2.42236e-05
17 *98:A1 *44:41 4.94204e-05
18 *19:10 *84:A 2.97004e-06
19 *19:10 *90:A 8.8266e-05
20 *19:10 *91:C1 4.75576e-05
21 *19:10 *36:10 3.47837e-05
22 *19:23 *91:B1 0
23 *19:23 *91:C1 1.71013e-05
24 *19:23 *36:10 2.16389e-05
25 *19:23 *36:45 7.44453e-05
*RES
1 *84:Y *19:10 5.52 
2 *19:10 *91:A1 6.48 
3 *19:10 *19:23 2.4 
4 *19:23 *89:A 4.05 
5 *19:23 *98:A1 8.04 
*END

*D_NET *20 0.000519383
*CONN
*I *90:A I *D sky130_fd_sc_hd__nand2_1
*I *85:Y O *D sky130_fd_sc_hd__inv_2
*CAP
1 *90:A 0.000108478
2 *85:Y 0.000108478
3 *90:A *90:B 0.00012757
4 *90:A *36:23 8.65905e-05
5 *19:10 *90:A 8.8266e-05
*RES
1 *85:Y *90:A 6.08 
*END

*D_NET *21 0.00230836
*CONN
*I *87:B1 I *D sky130_fd_sc_hd__a21o_1
*I *90:B I *D sky130_fd_sc_hd__nand2_1
*I *86:Y O *D sky130_fd_sc_hd__a21oi_1
*CAP
1 *87:B1 0
2 *90:B 0.000198012
3 *86:Y 0.000486398
4 *21:12 0.00068441
5 *90:B *88:A1 4.92062e-05
6 *90:B *88:A3 4.82863e-05
7 *90:B *36:23 3.94429e-05
8 *21:12 *85:A 0
9 *21:12 *86:B1 0.000118361
10 *21:12 *88:A3 0.000230869
11 *21:12 *94:A1 9.61344e-05
12 *21:12 *95:B1 0
13 *21:12 *98:B1 0
14 *21:12 *33:29 7.06865e-05
15 *21:12 *43:23 0.000109016
16 *90:A *90:B 0.00012757
17 *99:D *21:12 0
18 *103:A *21:12 4.99619e-05
*RES
1 *86:Y *21:12 15.29 
2 *21:12 *90:B 5.875 
3 *21:12 *87:B1 1.6 
*END

*D_NET *22 0.00023815
*CONN
*I *88:B1 I *D sky130_fd_sc_hd__o31a_1
*I *87:X O *D sky130_fd_sc_hd__a21o_1
*CAP
1 *88:B1 1.77416e-05
2 *87:X 1.77416e-05
3 *88:B1 *88:A1 0.00012657
4 *88:B1 *88:A3 7.60965e-05
*RES
1 *87:X *88:B1 4.34 
*END

*D_NET *23 0.00186555
*CONN
*I *98:B1 I *D sky130_fd_sc_hd__o221a_1
*I *91:B1 I *D sky130_fd_sc_hd__o211a_1
*I *89:Y O *D sky130_fd_sc_hd__nand4_1
*CAP
1 *98:B1 0.000200433
2 *91:B1 0.000185833
3 *89:Y 4.23827e-05
4 *23:8 0.000428649
5 *91:B1 *85:A 7.81876e-05
6 *91:B1 *91:A2 3.26889e-05
7 *91:B1 *91:C1 4.82919e-05
8 *91:B1 *99:RESET_B 0.000133807
9 *91:B1 *36:10 0.000154148
10 *91:B1 *36:45 7.57202e-05
11 *91:B1 *43:8 5.83121e-06
12 *98:B1 *85:A 2.23407e-05
13 *98:B1 *93:B 4.91927e-05
14 *98:B1 *94:A1 0
15 *98:B1 *94:A3 0.000128998
16 *98:B1 *98:B2 9.50342e-06
17 *98:B1 *98:C1 5.53249e-06
18 *98:B1 *44:41 8.91594e-05
19 *23:8 *43:70 8.65961e-05
20 *91:A1 *91:B1 8.82557e-05
21 *19:23 *91:B1 0
22 *21:12 *98:B1 0
*RES
1 *89:Y *23:8 4.395 
2 *23:8 *91:B1 8.805 
3 *23:8 *98:B1 8.295 
*END

*D_NET *24 0.000337815
*CONN
*I *91:C1 I *D sky130_fd_sc_hd__o211a_1
*I *90:Y O *D sky130_fd_sc_hd__nand2_1
*CAP
1 *91:C1 8.82861e-05
2 *90:Y 8.82861e-05
3 *91:A1 *91:C1 4.82919e-05
4 *91:B1 *91:C1 4.82919e-05
5 *19:10 *91:C1 4.75576e-05
6 *19:23 *91:C1 1.71013e-05
*RES
1 *90:Y *91:C1 9.03 
*END

*D_NET *25 0.00190235
*CONN
*I *93:B I *D sky130_fd_sc_hd__nor2_1
*I *92:X O *D sky130_fd_sc_hd__o211a_1
*CAP
1 *93:B 0.000586183
2 *92:X 0.000586183
3 *93:B *86:B1 0.000100004
4 *93:B *92:A1 1.56428e-05
5 *93:B *94:A1 0
6 *93:B *94:A4 0.000227529
7 *93:B *98:B2 0
8 *93:B *98:C1 0.000157602
9 *93:B *34:25 5.51158e-05
10 *93:B *34:27 0.000124895
11 *98:B1 *93:B 4.91927e-05
12 *111:A *93:B 0
*RES
1 *92:X *93:B 17.61 
*END

*D_NET *26 0.00124193
*CONN
*I *95:A1_N I *D sky130_fd_sc_hd__a2bb2o_1
*I *93:Y O *D sky130_fd_sc_hd__nor2_1
*CAP
1 *95:A1_N 0.000316182
2 *93:Y 0.000316182
3 *95:A1_N *94:A4 0
4 *95:A1_N *95:A2_N 4.66108e-05
5 *95:A1_N *95:B1 4.43871e-06
6 *95:A1_N *95:B2 0.000172175
7 *95:A1_N *114:A 0.000107432
8 *95:A1_N *116:A 6.56741e-05
9 *95:A1_N *34:27 2.30292e-05
10 *95:A1_N *43:48 7.30547e-05
11 count[0] *95:A1_N 6.9003e-05
12 *101:D *95:A1_N 4.81513e-05
*RES
1 *93:Y *95:A1_N 14.7 
*END

*D_NET *27 0.00147838
*CONN
*I *96:B I *D sky130_fd_sc_hd__or2_1
*I *95:A2_N I *D sky130_fd_sc_hd__a2bb2o_1
*I *94:X O *D sky130_fd_sc_hd__a41o_1
*CAP
1 *96:B 0.000176906
2 *95:A2_N 8.66226e-05
3 *94:X 0
4 *27:4 0.000263528
5 *95:A2_N *94:A2 1.60203e-05
6 *95:A2_N *95:B1 4.82919e-05
7 *95:A2_N *43:48 9.2741e-05
8 *96:B *94:A2 0.000164874
9 *96:B *94:A3 0.000118081
10 *96:B *94:A4 4.66108e-05
11 *96:B *94:B1 7.77885e-05
12 *96:B *98:B2 5.83373e-05
13 *96:B *98:C1 0.000197044
14 *96:B *101:RESET_B 8.49205e-05
15 *95:A1_N *95:A2_N 4.66108e-05
*RES
1 *94:X *27:4 1.6 
2 *27:4 *95:A2_N 3.79 
3 *27:4 *96:B 10.985 
*END

*D_NET *28 0.000870441
*CONN
*I *98:C1 I *D sky130_fd_sc_hd__o221a_1
*I *96:X O *D sky130_fd_sc_hd__or2_1
*CAP
1 *98:C1 0.000174193
2 *96:X 0.000174193
3 *98:C1 *94:A4 3.45679e-05
4 *98:C1 *98:B2 1.23244e-05
5 *98:C1 *101:RESET_B 0.000114984
6 *93:B *98:C1 0.000157602
7 *96:B *98:C1 0.000197044
8 *98:B1 *98:C1 5.53249e-06
*RES
1 *96:X *98:C1 11.61 
*END

*D_NET *29 0.00065955
*CONN
*I *98:B2 I *D sky130_fd_sc_hd__o221a_1
*I *97:Y O *D sky130_fd_sc_hd__nand2_1
*CAP
1 *98:B2 0.000181248
2 *97:Y 0.000181248
3 *98:B2 *94:A3 5.39961e-05
4 *98:B2 *96:A 8.78735e-05
5 *98:B2 *97:A 2.65814e-06
6 *98:B2 *34:25 7.23602e-05
7 *93:B *98:B2 0
8 *96:B *98:B2 5.83373e-05
9 *98:B1 *98:B2 9.50342e-06
10 *98:C1 *98:B2 1.23244e-05
*RES
1 *97:Y *98:B2 11.07 
*END

*D_NET *30 0.00144165
*CONN
*I *105:A I *D sky130_fd_sc_hd__clkbuf_16
*I *104:A I *D sky130_fd_sc_hd__clkbuf_16
*I *103:X O *D sky130_fd_sc_hd__clkbuf_16
*CAP
1 *105:A 9.29811e-05
2 *104:A 9.80871e-05
3 *103:X 0
4 *30:6 0.000191068
5 *104:A *85:A 4.66108e-05
6 *104:A *92:A2 7.23635e-05
7 *104:A *92:B1 3.77122e-05
8 *104:A *94:B1 2.30797e-05
9 *104:A *33:29 0.000122331
10 *104:A *36:45 0.000134516
11 *104:A *43:70 2.30292e-05
12 *105:A *94:B1 0.000116151
13 *105:A *98:A2 8.49205e-05
14 *105:A *100:CLK 3.50033e-05
15 *105:A *32:8 5.83121e-06
16 *89:A *104:A 2.75229e-05
17 *98:A1 *104:A 0.000157595
18 *98:A1 *105:A 0.000172845
*RES
1 *103:X *30:6 3.6 
2 *30:6 *104:A 7.32 
3 *30:6 *105:A 6.54 
*END

*D_NET *31 0.00122787
*CONN
*I *101:CLK I *D sky130_fd_sc_hd__dfrtp_1
*I *99:CLK I *D sky130_fd_sc_hd__dfrtp_1
*I *104:X O *D sky130_fd_sc_hd__clkbuf_16
*CAP
1 *101:CLK 0.000264727
2 *99:CLK 8.46266e-05
3 *104:X 0
4 *31:6 0.000349354
5 *99:CLK *33:14 0.000188074
6 *101:CLK *33:14 0.000116927
7 count[0] *101:CLK 0.000224159
8 *103:A *101:CLK 0
*RES
1 *104:X *31:6 3.6 
2 *31:6 *99:CLK 5.745 
3 *31:6 *101:CLK 9.57 
*END

*D_NET *32 0.00200033
*CONN
*I *102:CLK I *D sky130_fd_sc_hd__dfrtp_1
*I *100:CLK I *D sky130_fd_sc_hd__dfrtp_1
*I *105:X O *D sky130_fd_sc_hd__clkbuf_16
*CAP
1 *102:CLK 7.24272e-05
2 *100:CLK 0.00022511
3 *105:X 0.000392496
4 *32:8 0.000690034
5 *100:CLK *92:A2 0
6 *100:CLK *92:B1 0
7 *100:CLK *94:A3 0
8 *100:CLK *94:B1 0.000137571
9 *100:CLK *102:RESET_B 0
10 *100:CLK *36:45 0.000157588
11 *102:CLK *96:A 0
12 *32:8 *98:A2 0.000191197
13 *102:D *100:CLK 9.50342e-06
14 *102:D *102:CLK 8.35683e-05
15 *105:A *100:CLK 3.50033e-05
16 *105:A *32:8 5.83121e-06
*RES
1 *105:X *32:8 8.535 
2 *32:8 *100:CLK 8.295 
3 *32:8 *102:CLK 4.98 
*END

*D_NET *33 0.00448746
*CONN
*I *88:A2 I *D sky130_fd_sc_hd__o31a_1
*I *94:A1 I *D sky130_fd_sc_hd__a41o_1
*I *92:A2 I *D sky130_fd_sc_hd__o211a_1
*I *89:B I *D sky130_fd_sc_hd__nand4_1
*I *86:A1 I *D sky130_fd_sc_hd__a21oi_1
*I *107:X O *D sky130_fd_sc_hd__buf_1
*CAP
1 *88:A2 0.000133656
2 *94:A1 0.000171973
3 *92:A2 0.000317823
4 *89:B 0
5 *86:A1 0
6 *107:X 0
7 *33:29 0.000644241
8 *33:23 0.000754852
9 *33:14 0.000519814
10 *33:4 0.000397008
11 *88:A2 *88:A1 4.37709e-05
12 *92:A2 *92:B1 0.00013849
13 *94:A1 *95:B1 0
14 *33:14 *86:A2 2.49909e-05
15 *33:14 *95:B1 0
16 *33:14 *37:12 7.23602e-05
17 *33:14 *43:29 1.82759e-05
18 *33:23 *86:A2 2.49909e-05
19 *33:23 *86:B1 0.000313852
20 *33:29 *85:A 4.21973e-05
21 *33:29 *95:B1 0
22 *33:29 *43:29 3.03684e-05
23 *33:29 *43:70 4.43682e-05
24 count[0] *33:14 0.00010467
25 *93:B *94:A1 0
26 *98:B1 *94:A1 0
27 *99:CLK *33:14 0.000188074
28 *99:D *33:14 1.34361e-05
29 *100:CLK *92:A2 0
30 *101:CLK *33:14 0.000116927
31 *103:A *33:23 9.80943e-06
32 *104:A *92:A2 7.23635e-05
33 *104:A *33:29 0.000122331
34 *107:A *33:14 0
35 *21:12 *94:A1 9.61344e-05
36 *21:12 *33:29 7.06865e-05
*RES
1 *107:X *33:4 1.6 
2 *33:4 *33:14 9.85 
3 *33:14 *86:A1 1.6 
4 *33:14 *33:23 5.555 
5 *33:23 *33:29 6.425 
6 *33:29 *89:B 1.6 
7 *33:29 *92:A2 9.845 
8 *33:23 *94:A1 6.255 
9 *33:4 *88:A2 3.955 
*END

*D_NET *34 0.002346
*CONN
*I *97:A I *D sky130_fd_sc_hd__nand2_1
*I *93:A I *D sky130_fd_sc_hd__nor2_1
*I *114:A I *D sky130_fd_sc_hd__buf_2
*I *94:A4 I *D sky130_fd_sc_hd__a41o_1
*I *101:Q O *D sky130_fd_sc_hd__dfrtp_1
*CAP
1 *97:A 5.39048e-05
2 *93:A 2.08101e-05
3 *114:A 0.000182136
4 *94:A4 0.00026126
5 *101:Q 0
6 *34:27 0.000379774
7 *34:25 0.000296883
8 *34:4 0.00032741
9 *94:A4 *94:B1 1.83756e-05
10 *94:A4 *95:B2 0
11 *94:A4 *101:RESET_B 7.40482e-06
12 *94:A4 *116:A 0
13 *114:A *116:A 4.82863e-05
14 *34:25 *96:A 3.04982e-05
15 count[0] *114:A 2.50602e-05
16 *93:B *94:A4 0.000227529
17 *93:B *34:25 5.51158e-05
18 *93:B *34:27 0.000124895
19 *95:A1_N *94:A4 0
20 *95:A1_N *114:A 0.000107432
21 *95:A1_N *34:27 2.30292e-05
22 *96:B *94:A4 4.66108e-05
23 *98:B2 *97:A 2.65814e-06
24 *98:B2 *34:25 7.23602e-05
25 *98:C1 *94:A4 3.45679e-05
26 *111:A *94:A4 0
*RES
1 *101:Q *34:4 1.6 
2 *34:4 *94:A4 10.19 
3 *34:4 *34:25 5.89 
4 *34:25 *34:27 2.865 
5 *34:27 *114:A 4.825 
6 *34:27 *93:A 1.96 
7 *34:25 *97:A 2.41 
*END

*D_NET *35 0.0017789
*CONN
*I *115:A I *D sky130_fd_sc_hd__buf_2
*I *97:B I *D sky130_fd_sc_hd__nand2_1
*I *96:A I *D sky130_fd_sc_hd__or2_1
*I *102:Q O *D sky130_fd_sc_hd__dfrtp_1
*CAP
1 *115:A 0
2 *97:B 0
3 *96:A 0.000118114
4 *102:Q 0.000213475
5 *35:14 0.000608955
6 *35:12 0.000704317
7 count[3] *35:12 1.1477e-05
8 *98:B2 *96:A 8.78735e-05
9 *102:CLK *96:A 0
10 *102:D *96:A 4.18603e-06
11 *34:25 *96:A 3.04982e-05
*RES
1 *102:Q *35:12 8.375 
2 *35:12 *35:14 7.005 
3 *35:14 *96:A 8.255 
4 *35:14 *97:B 1.6 
5 *35:12 *115:A 1.6 
*END

*D_NET *36 0.00568288
*CONN
*I *94:B1 I *D sky130_fd_sc_hd__a41o_1
*I *92:A1 I *D sky130_fd_sc_hd__o211a_1
*I *86:B1 I *D sky130_fd_sc_hd__a21oi_1
*I *87:A1 I *D sky130_fd_sc_hd__a21o_1
*I *88:A1 I *D sky130_fd_sc_hd__o31a_1
*I *84:A I *D sky130_fd_sc_hd__inv_2
*I *106:X O *D sky130_fd_sc_hd__clkbuf_2
*CAP
1 *94:B1 0.000483187
2 *92:A1 6.50076e-05
3 *86:B1 0.000339465
4 *87:A1 0
5 *88:A1 0.000228009
6 *84:A 3.0573e-05
7 *106:X 0
8 *36:47 0.000404473
9 *36:45 0.000682556
10 *36:23 0.000366601
11 *36:10 0.000314514
12 *36:4 0.000344718
13 *84:A *85:A 2.24336e-05
14 *86:B1 *44:33 0.00015639
15 *88:A1 *88:A3 4.36241e-05
16 *92:A1 *44:33 8.62395e-05
17 *94:B1 *94:A3 1.10808e-05
18 *94:B1 *98:A2 8.63479e-05
19 *36:10 *85:A 4.1185e-05
20 *36:45 *92:B1 0
21 *36:45 *42:24 0
22 *88:A2 *88:A1 4.37709e-05
23 *88:B1 *88:A1 0.00012657
24 *90:A *36:23 8.65905e-05
25 *90:B *88:A1 4.92062e-05
26 *90:B *36:23 3.94429e-05
27 *91:B1 *36:10 0.000154148
28 *91:B1 *36:45 7.57202e-05
29 *93:B *86:B1 0.000100004
30 *93:B *92:A1 1.56428e-05
31 *94:A4 *94:B1 1.83756e-05
32 *96:B *94:B1 7.77885e-05
33 *98:A1 *36:45 2.42236e-05
34 *100:CLK *94:B1 0.000137571
35 *100:CLK *36:45 0.000157588
36 *100:D *36:45 0
37 *103:A *86:B1 3.00381e-05
38 *104:A *94:B1 2.30797e-05
39 *104:A *36:45 0.000134516
40 *105:A *94:B1 0.000116151
41 *19:10 *84:A 2.97004e-06
42 *19:10 *36:10 3.47837e-05
43 *19:23 *36:10 2.16389e-05
44 *19:23 *36:45 7.44453e-05
45 *21:12 *86:B1 0.000118361
46 *33:23 *86:B1 0.000313852
*RES
1 *106:X *36:4 1.6 
2 *36:4 *36:10 5.03 
3 *36:10 *84:A 4.215 
4 *36:10 *36:23 3.83 
5 *36:23 *88:A1 5.875 
6 *36:23 *87:A1 1.6 
7 *36:4 *36:45 6.47 
8 *36:45 *36:47 2 
9 *36:47 *86:B1 9.31 
10 *36:47 *92:A1 3.085 
11 *36:45 *94:B1 10.995 
*END

*D_NET *37 0.0028953
*CONN
*I *106:A I *D sky130_fd_sc_hd__clkbuf_2
*I *95:B1 I *D sky130_fd_sc_hd__a2bb2o_1
*I *108:X O *D sky130_fd_sc_hd__clkbuf_1
*CAP
1 *106:A 0.000413015
2 *95:B1 0.000434527
3 *108:X 0.000371116
4 *37:12 0.00121866
5 *95:B1 *43:29 0
6 *95:B1 *43:48 5.5761e-05
7 *106:A *99:RESET_B 0.000201849
8 *106:A *43:8 4.59353e-06
9 *94:A1 *95:B1 0
10 *95:A1_N *95:B1 4.43871e-06
11 *95:A2_N *95:B1 4.82919e-05
12 *99:D *95:B1 0
13 *99:D *37:12 7.06865e-05
14 *107:A *37:12 0
15 *108:A *37:12 0
16 *21:12 *95:B1 0
17 *33:14 *95:B1 0
18 *33:14 *37:12 7.23602e-05
19 *33:29 *95:B1 0
*RES
1 *108:X *37:12 10.34 
2 *37:12 *95:B1 12.785 
3 *37:12 *106:A 7 
*END

*D_NET *38 0.000575938
*CONN
*I *87:A2 I *D sky130_fd_sc_hd__a21o_1
*I *109:X O *D sky130_fd_sc_hd__clkbuf_1
*CAP
1 *87:A2 0.000260084
2 *109:X 0.000260084
3 *87:A2 *85:A 9.50342e-06
4 *87:A2 *88:A3 2.7881e-05
5 *109:A *87:A2 1.83847e-05
*RES
1 *109:X *87:A2 10.665 
*END

*D_NET *39 0.00107004
*CONN
*I *91:A2 I *D sky130_fd_sc_hd__o211a_1
*I *110:X O *D sky130_fd_sc_hd__clkbuf_1
*CAP
1 *91:A2 0.00023908
2 *110:X 0.00023908
3 *91:A2 *99:RESET_B 7.04135e-05
4 *91:A2 *102:RESET_B 9.71067e-05
5 *91:A2 *42:8 4.82919e-05
6 *91:A2 *42:24 0.000210846
7 *91:A2 *44:12 0
8 *91:A1 *91:A2 3.7837e-05
9 *91:B1 *91:A2 3.26889e-05
10 *100:D *91:A2 9.47017e-05
11 *110:A *91:A2 0
*RES
1 *110:X *91:A2 13.5 
*END

*D_NET *40 0.000689011
*CONN
*I *95:B2 I *D sky130_fd_sc_hd__a2bb2o_1
*I *111:X O *D sky130_fd_sc_hd__clkbuf_1
*CAP
1 *95:B2 0.000134785
2 *111:X 0.000134785
3 *95:B2 *116:A 0.000247266
4 *94:A4 *95:B2 0
5 *95:A1_N *95:B2 0.000172175
*RES
1 *111:X *95:B2 10.815 
*END

*D_NET *41 0.00121432
*CONN
*I *98:A2 I *D sky130_fd_sc_hd__o221a_1
*I *112:X O *D sky130_fd_sc_hd__clkbuf_1
*CAP
1 *98:A2 0.000424101
2 *112:X 0.000424101
3 *98:A2 *94:A3 3.64998e-06
4 *98:A2 *102:RESET_B 0
5 *94:B1 *98:A2 8.63479e-05
6 *105:A *98:A2 8.49205e-05
7 *32:8 *98:A2 0.000191197
*RES
1 *112:X *98:A2 14.895 
*END

*D_NET *42 0.00477036
*CONN
*I *101:RESET_B I *D sky130_fd_sc_hd__dfrtp_1
*I *102:RESET_B I *D sky130_fd_sc_hd__dfrtp_1
*I *100:RESET_B I *D sky130_fd_sc_hd__dfrtp_1
*I *99:RESET_B I *D sky130_fd_sc_hd__dfrtp_1
*I *113:X O *D sky130_fd_sc_hd__dlymetal6s2s_1
*CAP
1 *101:RESET_B 0.000521224
2 *102:RESET_B 0.000901192
3 *100:RESET_B 0
4 *99:RESET_B 0.000477511
5 *113:X 0.000158063
6 *42:24 0.000497346
7 *42:8 0.000752952
8 *99:RESET_B *43:8 5.80887e-05
9 *102:RESET_B *44:12 0
10 *42:24 *92:B1 0
11 *91:A1 *99:RESET_B 0.000274245
12 *91:A2 *99:RESET_B 7.04135e-05
13 *91:A2 *102:RESET_B 9.71067e-05
14 *91:A2 *42:8 4.82919e-05
15 *91:A2 *42:24 0.000210846
16 *91:B1 *99:RESET_B 0.000133807
17 *94:A4 *101:RESET_B 7.40482e-06
18 *96:B *101:RESET_B 8.49205e-05
19 *98:A2 *102:RESET_B 0
20 *98:C1 *101:RESET_B 0.000114984
21 *100:CLK *102:RESET_B 0
22 *102:D *101:RESET_B 0.000160119
23 *106:A *99:RESET_B 0.000201849
24 *110:A *102:RESET_B 0
25 *112:A *102:RESET_B 0
26 *113:A *99:RESET_B 0
27 *36:45 *42:24 0
*RES
1 *113:X *42:8 6.12 
2 *42:8 *99:RESET_B 10.2875 
3 *42:8 *42:24 2.655 
4 *42:24 *100:RESET_B 2 
5 *42:24 *102:RESET_B 8.015 
6 *102:RESET_B *101:RESET_B 7.14 
*END

*D_NET *43 0.00650122
*CONN
*I *92:B1 I *D sky130_fd_sc_hd__o211a_1
*I *89:C I *D sky130_fd_sc_hd__nand4_1
*I *94:A2 I *D sky130_fd_sc_hd__a41o_1
*I *116:A I *D sky130_fd_sc_hd__buf_2
*I *86:A2 I *D sky130_fd_sc_hd__a21oi_1
*I *88:A3 I *D sky130_fd_sc_hd__o31a_1
*I *99:Q O *D sky130_fd_sc_hd__dfrtp_1
*CAP
1 *92:B1 0.000480355
2 *89:C 1.85694e-05
3 *94:A2 0.000126296
4 *116:A 0.000131581
5 *86:A2 2.9453e-05
6 *88:A3 0.000252459
7 *99:Q 0.000150967
8 *43:70 0.000598671
9 *43:48 0.00049832
10 *43:29 0.000629449
11 *43:23 0.000500095
12 *43:8 0.000444223
13 *88:A3 *85:A 8.77811e-05
14 *43:23 *85:A 4.49498e-05
15 *43:70 *85:A 0.000122337
16 count[0] *43:29 0.000148475
17 count[0] *43:48 0.000147595
18 *87:A2 *88:A3 2.7881e-05
19 *88:A1 *88:A3 4.36241e-05
20 *88:B1 *88:A3 7.60965e-05
21 *89:A *92:B1 2.75229e-05
22 *90:B *88:A3 4.82863e-05
23 *91:B1 *43:8 5.83121e-06
24 *92:A2 *92:B1 0.00013849
25 *94:A4 *116:A 0
26 *95:A1_N *116:A 6.56741e-05
27 *95:A1_N *43:48 7.30547e-05
28 *95:A2_N *94:A2 1.60203e-05
29 *95:A2_N *43:48 9.2741e-05
30 *95:B1 *43:29 0
31 *95:B1 *43:48 5.5761e-05
32 *95:B2 *116:A 0.000247266
33 *96:B *94:A2 0.000164874
34 *99:RESET_B *43:8 5.80887e-05
35 *100:CLK *92:B1 0
36 *100:D *92:B1 2.85837e-05
37 *101:D *43:48 8.53113e-06
38 *103:A *86:A2 8.40213e-05
39 *104:A *92:B1 3.77122e-05
40 *104:A *43:70 2.30292e-05
41 *106:A *43:8 4.59353e-06
42 *111:A *116:A 0.000144202
43 *114:A *116:A 4.82863e-05
44 *21:12 *88:A3 0.000230869
45 *21:12 *43:23 0.000109016
46 *23:8 *43:70 8.65961e-05
47 *33:14 *86:A2 2.49909e-05
48 *33:14 *43:29 1.82759e-05
49 *33:23 *86:A2 2.49909e-05
50 *33:29 *43:29 3.03684e-05
51 *33:29 *43:70 4.43682e-05
52 *36:45 *92:B1 0
53 *42:24 *92:B1 0
*RES
1 *99:Q *43:8 5.43 
2 *43:8 *88:A3 9.285 
3 *43:8 *43:23 3.38 
4 *43:23 *43:29 8.045 
5 *43:29 *86:A2 4.395 
6 *43:29 *43:48 6.95 
7 *43:48 *116:A 9.725 
8 *43:48 *94:A2 3.43 
9 *43:23 *43:70 2.52 
10 *43:70 *89:C 1.96 
11 *43:70 *92:B1 12.53 
*END

*D_NET *44 0.00463577
*CONN
*I *92:C1 I *D sky130_fd_sc_hd__o211a_1
*I *94:A3 I *D sky130_fd_sc_hd__a41o_1
*I *89:D I *D sky130_fd_sc_hd__nand4_1
*I *85:A I *D sky130_fd_sc_hd__inv_2
*I *117:A I *D sky130_fd_sc_hd__buf_2
*I *100:Q O *D sky130_fd_sc_hd__dfrtp_1
*CAP
1 *92:C1 0
2 *94:A3 0.000297342
3 *89:D 0
4 *85:A 0.000198155
5 *117:A 1.37015e-05
6 *100:Q 0.000134629
7 *44:41 0.000298799
8 *44:33 0.00078148
9 *44:25 0.000695234
10 *44:12 0.00046007
11 *84:A *85:A 2.24336e-05
12 *86:B1 *44:33 0.00015639
13 *87:A2 *85:A 9.50342e-06
14 *88:A3 *85:A 8.77811e-05
15 *91:A2 *44:12 0
16 *91:B1 *85:A 7.81876e-05
17 *92:A1 *44:33 8.62395e-05
18 *94:B1 *94:A3 1.10808e-05
19 *96:B *94:A3 0.000118081
20 *98:A1 *94:A3 0.000135539
21 *98:A1 *44:41 4.94204e-05
22 *98:A2 *94:A3 3.64998e-06
23 *98:B1 *85:A 2.23407e-05
24 *98:B1 *94:A3 0.000128998
25 *98:B1 *44:41 8.91594e-05
26 *98:B2 *94:A3 5.39961e-05
27 *100:CLK *94:A3 0
28 *102:RESET_B *44:12 0
29 *104:A *85:A 4.66108e-05
30 *110:A *117:A 8.6076e-05
31 *110:A *44:12 0.000127757
32 *110:A *44:25 4.57056e-05
33 *112:A *117:A 4.94474e-05
34 *112:A *44:25 9.72897e-05
35 *21:12 *85:A 0
36 *33:29 *85:A 4.21973e-05
37 *36:10 *85:A 4.1185e-05
38 *43:23 *85:A 4.49498e-05
39 *43:70 *85:A 0.000122337
*RES
1 *100:Q *44:12 8.195 
2 *44:12 *117:A 2.395 
3 *44:12 *44:25 5.13 
4 *44:25 *44:33 6.965 
5 *44:33 *44:41 3.935 
6 *44:41 *85:A 10.925 
7 *44:41 *89:D 1.6 
8 *44:33 *94:A3 9.195 
9 *44:25 *92:C1 1.6 
*END
