*SPEF "ieee 1481-1999"
*DESIGN "param_counter"
*DATE "00:16:09 Monday December 08, 2025"
*VENDOR "The OpenROAD Project"
*PROGRAM "OpenROAD"
*VERSION "edf00dff99f6c40d67a30c0e22a8191c5d2ed9d6"
*DESIGN_FLOW "NAME_SCOPE LOCAL" "PIN_CAP NONE"
*DIVIDER /
*DELIMITER :
*BUS_DELIMITER []
*T_UNIT 1 NS
*C_UNIT 1 PF
*R_UNIT 1 OHM
*L_UNIT 1 HENRY

*NAME_MAP
*3 clk
*4 count[0]
*5 count[1]
*6 count[2]
*7 count[3]
*8 en
*9 load
*10 load_value[0]
*11 load_value[1]
*12 load_value[2]
*13 load_value[3]
*14 rst_n
*15 _00_
*16 _01_
*17 _02_
*18 _03_
*19 _04_
*20 _05_
*21 _06_
*22 _07_
*23 _08_
*24 _09_
*25 _10_
*26 _11_
*27 _12_
*28 _13_
*29 _14_
*30 clknet_0_clk
*31 clknet_1_0__leaf_clk
*32 clknet_1_1__leaf_clk
*33 net1
*34 net10
*35 net11
*36 net12
*37 net2
*38 net3
*39 net4
*40 net5
*41 net6
*42 net7
*43 net8
*44 net9
*45 FILLER_0_18
*46 FILLER_0_27
*47 FILLER_0_29
*48 FILLER_0_41
*49 FILLER_0_6
*50 FILLER_1_13
*51 FILLER_1_29
*52 FILLER_1_41
*53 FILLER_2_27
*54 FILLER_2_37
*55 FILLER_3_28
*56 FILLER_4_3
*57 FILLER_4_37
*58 FILLER_5_3
*59 FILLER_7_17
*60 FILLER_7_26
*61 FILLER_7_29
*62 FILLER_7_41
*63 PHY_EDGE_ROW_0_Left_8
*64 PHY_EDGE_ROW_0_Right_0
*65 PHY_EDGE_ROW_1_Left_9
*66 PHY_EDGE_ROW_1_Right_1
*67 PHY_EDGE_ROW_2_Left_10
*68 PHY_EDGE_ROW_2_Right_2
*69 PHY_EDGE_ROW_3_Left_11
*70 PHY_EDGE_ROW_3_Right_3
*71 PHY_EDGE_ROW_4_Left_12
*72 PHY_EDGE_ROW_4_Right_4
*73 PHY_EDGE_ROW_5_Left_13
*74 PHY_EDGE_ROW_5_Right_5
*75 PHY_EDGE_ROW_6_Left_14
*76 PHY_EDGE_ROW_6_Right_6
*77 PHY_EDGE_ROW_7_Left_15
*78 PHY_EDGE_ROW_7_Right_7
*79 TAP_TAPCELL_ROW_0_16
*80 TAP_TAPCELL_ROW_2_17
*81 TAP_TAPCELL_ROW_4_18
*82 TAP_TAPCELL_ROW_6_19
*83 TAP_TAPCELL_ROW_7_20
*84 _15_
*85 _16_
*86 _17_
*87 _18_
*88 _19_
*89 _20_
*90 _21_
*91 _22_
*92 _23_
*93 _24_
*94 _25_
*95 _26_
*96 _27_
*97 _28_
*98 _29_
*99 _30_
*100 _31_
*101 _32_
*102 _33_
*103 clkbuf_0_clk
*104 clkbuf_1_0__f_clk
*105 clkbuf_1_1__f_clk
*106 fanout12
*107 input1
*108 input2
*109 input3
*110 input4
*111 input5
*112 input6
*113 input7
*114 output10
*115 output11
*116 output8
*117 output9

*PORTS
clk I
count[0] O
count[1] O
count[2] O
count[3] O
en I
load I
load_value[0] I
load_value[1] I
load_value[2] I
load_value[3] I
rst_n I

*D_NET *3 0.000982819
*CONN
*P clk I
*I *103:A I *D sky130_fd_sc_hd__clkbuf_16
*CAP
1 clk 0.000357836
2 *103:A 0.000357836
3 *103:A count[0] 3.71658e-05
4 *103:A *86:A2 9.60875e-05
5 *103:A *86:B1 3.18676e-05
6 *103:A *101:CLK 0
7 *103:A *111:A 3.45861e-05
8 *103:A *21:12 5.71472e-05
9 *103:A *33:23 1.02936e-05
*RES
1 clk *103:A 23.0304 
*END

*D_NET *4 0.00214935
*CONN
*P count[0] O
*I *116:X O *D sky130_fd_sc_hd__buf_2
*CAP
1 count[0] 0.000617676
2 *116:X 0.000617676
3 count[0] *95:A1_N 6.77287e-05
4 count[0] *101:CLK 0.000232211
5 count[0] *101:D 9.9974e-05
6 count[0] *107:A 2.25951e-05
7 count[0] *111:A 0
8 count[0] *114:A 2.47724e-05
9 count[0] *33:14 0.000113647
10 count[0] *43:29 0.000161013
11 count[0] *43:48 0.000154889
12 *103:A count[0] 3.71658e-05
*RES
1 *116:X count[0] 28.1241 
*END

*D_NET *5 0.000521974
*CONN
*P count[1] O
*I *117:X O *D sky130_fd_sc_hd__buf_2
*CAP
1 count[1] 0.000158574
2 *117:X 0.000158574
3 count[1] *110:A 8.97528e-05
4 count[1] *112:A 0.000115073
*RES
1 *117:X count[1] 18.1949 
*END

*D_NET *6 0.00072306
*CONN
*P count[2] O
*I *114:X O *D sky130_fd_sc_hd__buf_2
*CAP
1 count[2] 0.000345561
2 *114:X 0.000345561
3 count[2] *111:A 3.19385e-05
*RES
1 *114:X count[2] 20.891 
*END

*D_NET *7 0.000490064
*CONN
*P count[3] O
*I *115:X O *D sky130_fd_sc_hd__buf_2
*CAP
1 count[3] 0.000197103
2 *115:X 0.000197103
3 count[3] *112:A 8.39501e-05
4 count[3] *35:12 1.19071e-05
*RES
1 *115:X count[3] 18.1949 
*END

*D_NET *8 0.000709924
*CONN
*P en I
*I *107:A I *D sky130_fd_sc_hd__buf_1
*CAP
1 en 0.00032681
2 *107:A 0.00032681
3 *107:A *108:A 3.37077e-05
4 *107:A *33:14 0
5 *107:A *37:12 0
6 count[0] *107:A 2.25951e-05
*RES
1 en *107:A 21.6946 
*END

*D_NET *9 0.000817378
*CONN
*P load I
*I *108:A I *D sky130_fd_sc_hd__clkbuf_1
*CAP
1 load 0.000391835
2 *108:A 0.000391835
3 *108:A *37:12 0
4 *107:A *108:A 3.37077e-05
*RES
1 load *108:A 22.6053 
*END

*D_NET *10 0.00094414
*CONN
*P load_value[0] I
*I *109:A I *D sky130_fd_sc_hd__clkbuf_1
*CAP
1 load_value[0] 0.000462425
2 *109:A 0.000462425
3 *109:A *87:A2 1.92905e-05
*RES
1 load_value[0] *109:A 22.6571 
*END

*D_NET *11 0.00122374
*CONN
*P load_value[1] I
*I *110:A I *D sky130_fd_sc_hd__clkbuf_1
*CAP
1 load_value[1] 0.000368026
2 *110:A 0.000368026
3 *110:A *91:A2 0
4 *110:A *102:RESET_B 0
5 *110:A *112:A 2.70794e-05
6 *110:A *113:A 8.57347e-05
7 *110:A *117:A 9.87617e-05
8 *110:A *44:12 0.000138548
9 *110:A *44:25 4.7812e-05
10 count[1] *110:A 8.97528e-05
*RES
1 load_value[1] *110:A 22.7306 
*END

*D_NET *12 0.00154802
*CONN
*P load_value[2] I
*I *111:A I *D sky130_fd_sc_hd__clkbuf_1
*CAP
1 load_value[2] 0.00066649
2 *111:A 0.00066649
3 *111:A *93:B 0
4 *111:A *94:A4 0
5 *111:A *116:A 0.000148519
6 count[0] *111:A 0
7 count[2] *111:A 3.19385e-05
8 *103:A *111:A 3.45861e-05
*RES
1 load_value[2] *111:A 22.1828 
*END

*D_NET *13 0.00130516
*CONN
*P load_value[3] I
*I *112:A I *D sky130_fd_sc_hd__clkbuf_1
*CAP
1 load_value[3] 0.000456071
2 *112:A 0.000456071
3 *112:A *102:RESET_B 0
4 *112:A *117:A 5.68722e-05
5 *112:A *44:25 0.000110048
6 count[1] *112:A 0.000115073
7 count[3] *112:A 8.39501e-05
8 *110:A *112:A 2.70794e-05
*RES
1 load_value[3] *112:A 23.2848 
*END

*D_NET *14 0.000428767
*CONN
*P rst_n I
*I *113:A I *D sky130_fd_sc_hd__dlymetal6s2s_1
*CAP
1 rst_n 0.000171516
2 *113:A 0.000171516
3 *113:A *99:RESET_B 0
4 *110:A *113:A 8.57347e-05
*RES
1 rst_n *113:A 18.1229 
*END

*D_NET *15 0.000213922
*CONN
*I *99:D I *D sky130_fd_sc_hd__dfrtp_1
*I *88:X O *D sky130_fd_sc_hd__o31a_1
*CAP
1 *99:D 6.15874e-05
2 *88:X 6.15874e-05
3 *99:D *95:B1 0
4 *99:D *21:12 0
5 *99:D *33:14 1.41029e-05
6 *99:D *37:12 7.6644e-05
*RES
1 *88:X *99:D 28.9393 
*END

*D_NET *16 0.000568486
*CONN
*I *100:D I *D sky130_fd_sc_hd__dfrtp_1
*I *91:X O *D sky130_fd_sc_hd__o211a_1
*CAP
1 *100:D 0.000218648
2 *91:X 0.000218648
3 *100:D *91:A2 0.000101859
4 *100:D *92:B1 2.93304e-05
5 *100:D *36:45 0
*RES
1 *91:X *100:D 31.0107 
*END

*D_NET *17 0.000427882
*CONN
*I *101:D I *D sky130_fd_sc_hd__dfrtp_1
*I *95:X O *D sky130_fd_sc_hd__a2bb2o_1
*CAP
1 *101:D 0.00013488
2 *95:X 0.00013488
3 *101:D *95:A1_N 4.88979e-05
4 *101:D *43:48 9.25014e-06
5 count[0] *101:D 9.9974e-05
*RES
1 *95:X *101:D 29.8857 
*END

*D_NET *18 0.00055931
*CONN
*I *102:D I *D sky130_fd_sc_hd__dfrtp_1
*I *98:X O *D sky130_fd_sc_hd__o221a_1
*CAP
1 *102:D 0.000135455
2 *98:X 0.000135455
3 *102:D *96:A 4.1331e-06
4 *102:D *100:CLK 1.02504e-05
5 *102:D *101:RESET_B 0.000183444
6 *102:D *102:CLK 9.0573e-05
*RES
1 *98:X *102:D 30.7071 
*END

*D_NET *19 0.0025922
*CONN
*I *98:A1 I *D sky130_fd_sc_hd__o221a_1
*I *89:A I *D sky130_fd_sc_hd__nand4_1
*I *91:A1 I *D sky130_fd_sc_hd__o211a_1
*I *84:Y O *D sky130_fd_sc_hd__inv_2
*CAP
1 *98:A1 0.000174135
2 *89:A 1.64648e-05
3 *91:A1 8.33801e-05
4 *84:Y 0.000123835
5 *19:23 0.000373143
6 *19:10 0.000389759
7 *89:A *92:B1 2.89114e-05
8 *89:A *104:A 2.89114e-05
9 *91:A1 *91:A2 4.10796e-05
10 *91:A1 *91:B1 9.31893e-05
11 *91:A1 *91:C1 5.52302e-05
12 *91:A1 *99:RESET_B 0.000314466
13 *98:A1 *94:A3 0.00013906
14 *98:A1 *104:A 0.000170654
15 *98:A1 *105:A 0.000187019
16 *98:A1 *36:45 2.49484e-05
17 *98:A1 *44:41 4.87132e-05
18 *19:10 *84:A 2.8266e-06
19 *19:10 *90:A 0.00010096
20 *19:10 *91:C1 4.78056e-05
21 *19:10 *36:10 3.34672e-05
22 *19:23 *91:B1 0
23 *19:23 *91:C1 1.76135e-05
24 *19:23 *36:10 2.05938e-05
25 *19:23 *36:45 7.60306e-05
*RES
1 *84:Y *19:10 16.0857 
2 *19:10 *91:A1 17.2286 
3 *19:10 *19:23 2.85714 
4 *19:23 *89:A 14.3357 
5 *19:23 *98:A1 19.0857 
*END

*D_NET *20 0.000571048
*CONN
*I *90:A I *D sky130_fd_sc_hd__nand2_1
*I *85:Y O *D sky130_fd_sc_hd__inv_2
*CAP
1 *90:A 0.000117845
2 *85:Y 0.000117845
3 *90:A *90:B 0.000135361
4 *90:A *36:23 9.90367e-05
5 *19:10 *90:A 0.00010096
*RES
1 *85:Y *90:A 22.0286 
*END

*D_NET *21 0.00254079
*CONN
*I *87:B1 I *D sky130_fd_sc_hd__a21o_1
*I *90:B I *D sky130_fd_sc_hd__nand2_1
*I *86:Y O *D sky130_fd_sc_hd__a21oi_1
*CAP
1 *87:B1 0
2 *90:B 0.000218902
3 *86:Y 0.000544184
4 *21:12 0.000763086
5 *90:B *88:A1 5.17614e-05
6 *90:B *88:A3 5.52238e-05
7 *90:B *36:23 4.17014e-05
8 *21:12 *85:A 0
9 *21:12 *86:B1 0.000125412
10 *21:12 *88:A3 0.000249486
11 *21:12 *94:A1 0.000103974
12 *21:12 *95:B1 0
13 *21:12 *98:B1 0
14 *21:12 *33:29 7.6644e-05
15 *21:12 *43:23 0.000117903
16 *90:A *90:B 0.000135361
17 *99:D *21:12 0
18 *103:A *21:12 5.71472e-05
*RES
1 *86:Y *21:12 29.8357 
2 *21:12 *90:B 14.3893 
3 *21:12 *87:B1 9.3 
*END

*D_NET *22 0.000264371
*CONN
*I *88:B1 I *D sky130_fd_sc_hd__o31a_1
*I *87:X O *D sky130_fd_sc_hd__a21o_1
*CAP
1 *88:B1 1.94333e-05
2 *87:X 1.94333e-05
3 *88:B1 *88:A1 0.000144773
4 *88:B1 *88:A3 8.07313e-05
*RES
1 *87:X *88:B1 19.9571 
*END

*D_NET *23 0.00207871
*CONN
*I *98:B1 I *D sky130_fd_sc_hd__o221a_1
*I *91:B1 I *D sky130_fd_sc_hd__o211a_1
*I *89:Y O *D sky130_fd_sc_hd__nand4_1
*CAP
1 *98:B1 0.000232652
2 *91:B1 0.000211598
3 *89:Y 4.65883e-05
4 *23:8 0.000490838
5 *91:B1 *85:A 8.06331e-05
6 *91:B1 *91:A2 3.57366e-05
7 *91:B1 *91:C1 5.52302e-05
8 *91:B1 *99:RESET_B 0.000152112
9 *91:B1 *36:10 0.000174369
10 *91:B1 *36:45 8.66063e-05
11 *91:B1 *43:8 6.05161e-06
12 *98:B1 *85:A 2.26327e-05
13 *98:B1 *93:B 4.75428e-05
14 *98:B1 *94:A1 0
15 *98:B1 *94:A3 0.000133009
16 *98:B1 *98:B2 1.02504e-05
17 *98:B1 *98:C1 5.80706e-06
18 *98:B1 *44:41 9.48172e-05
19 *23:8 *43:70 9.90431e-05
20 *91:A1 *91:B1 9.31893e-05
21 *19:23 *91:B1 0
22 *21:12 *98:B1 0
*RES
1 *89:Y *23:8 14.7464 
2 *23:8 *91:B1 19.9964 
3 *23:8 *98:B1 19.3893 
*END

*D_NET *24 0.000382619
*CONN
*I *91:C1 I *D sky130_fd_sc_hd__o211a_1
*I *90:Y O *D sky130_fd_sc_hd__nand2_1
*CAP
1 *91:C1 0.00010337
2 *90:Y 0.00010337
3 *91:A1 *91:C1 5.52302e-05
4 *91:B1 *91:C1 5.52302e-05
5 *19:10 *91:C1 4.78056e-05
6 *19:23 *91:C1 1.76135e-05
*RES
1 *90:Y *91:C1 29.7786 
*END

*D_NET *25 0.00212656
*CONN
*I *93:B I *D sky130_fd_sc_hd__nor2_1
*I *92:X O *D sky130_fd_sc_hd__o211a_1
*CAP
1 *93:B 0.000676255
2 *92:X 0.000676255
3 *93:B *86:B1 9.75935e-05
4 *93:B *92:A1 1.58163e-05
5 *93:B *94:A1 0
6 *93:B *94:A4 0.000246049
7 *93:B *98:B2 0
8 *93:B *98:C1 0.000170661
9 *93:B *34:25 5.35423e-05
10 *93:B *34:27 0.00014285
11 *98:B1 *93:B 4.75428e-05
12 *111:A *93:B 0
*RES
1 *92:X *93:B 39.9929 
*END

*D_NET *26 0.00137141
*CONN
*I *95:A1_N I *D sky130_fd_sc_hd__a2bb2o_1
*I *93:Y O *D sky130_fd_sc_hd__nor2_1
*CAP
1 *95:A1_N 0.000365635
2 *93:Y 0.000365635
3 *95:A1_N *94:A4 0
4 *95:A1_N *95:A2_N 5.33005e-05
5 *95:A1_N *95:B1 4.46186e-06
6 *95:A1_N *95:B2 0.000177011
7 *95:A1_N *114:A 0.000113093
8 *95:A1_N *116:A 7.21353e-05
9 *95:A1_N *34:27 2.44318e-05
10 *95:A1_N *43:48 7.90803e-05
11 count[0] *95:A1_N 6.77287e-05
12 *101:D *95:A1_N 4.88979e-05
*RES
1 *93:Y *95:A1_N 36.5286 
*END

*D_NET *27 0.00166136
*CONN
*I *96:B I *D sky130_fd_sc_hd__or2_1
*I *95:A2_N I *D sky130_fd_sc_hd__a2bb2o_1
*I *94:X O *D sky130_fd_sc_hd__a41o_1
*CAP
1 *96:B 0.000207692
2 *95:A2_N 9.66795e-05
3 *94:X 0
4 *27:4 0.000304372
5 *95:A2_N *94:A2 1.69961e-05
6 *95:A2_N *95:B1 5.52302e-05
7 *95:A2_N *43:48 9.7659e-05
8 *96:B *94:A2 0.000188586
9 *96:B *94:A3 0.000135028
10 *96:B *94:A4 5.33005e-05
11 *96:B *94:B1 7.80666e-05
12 *96:B *98:B2 5.86416e-05
13 *96:B *98:C1 0.000218693
14 *96:B *101:RESET_B 9.71197e-05
15 *95:A1_N *95:A2_N 5.33005e-05
*RES
1 *94:X *27:4 9.3 
2 *27:4 *95:A2_N 11.9071 
3 *27:4 *96:B 24.7107 
*END

*D_NET *28 0.000972131
*CONN
*I *98:C1 I *D sky130_fd_sc_hd__o221a_1
*I *96:X O *D sky130_fd_sc_hd__or2_1
*CAP
1 *98:C1 0.000202992
2 *96:X 0.000202992
3 *98:C1 *94:A4 3.67257e-05
4 *98:C1 *98:B2 1.18358e-05
5 *98:C1 *101:RESET_B 0.000122424
6 *93:B *98:C1 0.000170661
7 *96:B *98:C1 0.000218693
8 *98:B1 *98:C1 5.80706e-06
*RES
1 *96:X *98:C1 32.85 
*END

*D_NET *29 0.000734033
*CONN
*I *98:B2 I *D sky130_fd_sc_hd__o221a_1
*I *97:Y O *D sky130_fd_sc_hd__nand2_1
*CAP
1 *98:B2 0.00021199
2 *97:Y 0.00021199
3 *98:B2 *94:A3 5.83233e-05
4 *98:B2 *96:A 9.01238e-05
5 *98:B2 *97:A 2.51343e-06
6 *98:B2 *34:25 7.83659e-05
7 *93:B *98:B2 0
8 *96:B *98:B2 5.86416e-05
9 *98:B1 *98:B2 1.02504e-05
10 *98:C1 *98:B2 1.18358e-05
*RES
1 *97:Y *98:B2 32.2071 
*END

*D_NET *30 0.00161931
*CONN
*I *105:A I *D sky130_fd_sc_hd__clkbuf_16
*I *104:A I *D sky130_fd_sc_hd__clkbuf_16
*I *103:X O *D sky130_fd_sc_hd__clkbuf_16
*CAP
1 *105:A 0.000110099
2 *104:A 0.000118731
3 *103:X 0
4 *30:6 0.00022883
5 *104:A *85:A 5.33005e-05
6 *104:A *92:A2 8.27532e-05
7 *104:A *92:B1 3.93506e-05
8 *104:A *94:B1 2.48938e-05
9 *104:A *33:29 0.000139907
10 *104:A *36:45 0.00014576
11 *104:A *43:70 2.44318e-05
12 *105:A *94:B1 0.000125717
13 *105:A *98:A2 9.71197e-05
14 *105:A *100:CLK 3.57844e-05
15 *105:A *32:8 6.05161e-06
16 *89:A *104:A 2.89114e-05
17 *98:A1 *104:A 0.000170654
18 *98:A1 *105:A 0.000187019
*RES
1 *103:X *30:6 13.8 
2 *30:6 *104:A 18.2286 
3 *30:6 *105:A 17.3 
*END

*D_NET *31 0.00133998
*CONN
*I *101:CLK I *D sky130_fd_sc_hd__dfrtp_1
*I *99:CLK I *D sky130_fd_sc_hd__dfrtp_1
*I *104:X O *D sky130_fd_sc_hd__clkbuf_16
*CAP
1 *101:CLK 0.000295524
2 *99:CLK 9.32048e-05
3 *104:X 0
4 *31:6 0.000388729
5 *99:CLK *33:14 0.000203345
6 *101:CLK *33:14 0.000126963
7 count[0] *101:CLK 0.000232211
8 *103:A *101:CLK 0
*RES
1 *104:X *31:6 13.8 
2 *31:6 *99:CLK 16.3536 
3 *31:6 *101:CLK 20.9071 
*END

*D_NET *32 0.00224274
*CONN
*I *102:CLK I *D sky130_fd_sc_hd__dfrtp_1
*I *100:CLK I *D sky130_fd_sc_hd__dfrtp_1
*I *105:X O *D sky130_fd_sc_hd__clkbuf_16
*CAP
1 *102:CLK 8.36844e-05
2 *100:CLK 0.000256443
3 *105:X 0.000450001
4 *32:8 0.000790128
5 *100:CLK *92:A2 0
6 *100:CLK *92:B1 0
7 *100:CLK *94:A3 0
8 *100:CLK *94:B1 0.000148903
9 *100:CLK *102:RESET_B 0
10 *100:CLK *36:45 0.000170646
11 *102:CLK *96:A 0
12 *32:8 *98:A2 0.000200274
13 *102:D *100:CLK 1.02504e-05
14 *102:D *102:CLK 9.0573e-05
15 *105:A *100:CLK 3.57844e-05
16 *105:A *32:8 6.05161e-06
*RES
1 *105:X *32:8 19.675 
2 *32:8 *100:CLK 19.3893 
3 *32:8 *102:CLK 15.4429 
*END

*D_NET *33 0.00505196
*CONN
*I *88:A2 I *D sky130_fd_sc_hd__o31a_1
*I *94:A1 I *D sky130_fd_sc_hd__a41o_1
*I *92:A2 I *D sky130_fd_sc_hd__o211a_1
*I *89:B I *D sky130_fd_sc_hd__nand4_1
*I *86:A1 I *D sky130_fd_sc_hd__a21oi_1
*I *107:X O *D sky130_fd_sc_hd__buf_1
*CAP
1 *88:A2 0.000144928
2 *94:A1 0.000195176
3 *92:A2 0.000365686
4 *89:B 0
5 *86:A1 0
6 *107:X 0
7 *33:29 0.000743596
8 *33:23 0.000868046
9 *33:14 0.000593386
10 *33:4 0.000443354
11 *88:A2 *88:A1 4.55687e-05
12 *92:A2 *92:B1 0.000149811
13 *94:A1 *95:B1 0
14 *33:14 *86:A2 2.59355e-05
15 *33:14 *95:B1 0
16 *33:14 *37:12 7.83659e-05
17 *33:14 *43:29 1.88312e-05
18 *33:23 *86:A2 2.59355e-05
19 *33:23 *86:B1 0.000358971
20 *33:29 *85:A 4.43256e-05
21 *33:29 *95:B1 0
22 *33:29 *43:29 3.14048e-05
23 *33:29 *43:70 4.70078e-05
24 count[0] *33:14 0.000113647
25 *93:B *94:A1 0
26 *98:B1 *94:A1 0
27 *99:CLK *33:14 0.000203345
28 *99:D *33:14 1.41029e-05
29 *100:CLK *92:A2 0
30 *101:CLK *33:14 0.000126963
31 *103:A *33:23 1.02936e-05
32 *104:A *92:A2 8.27532e-05
33 *104:A *33:29 0.000139907
34 *107:A *33:14 0
35 *21:12 *94:A1 0.000103974
36 *21:12 *33:29 7.6644e-05
*RES
1 *107:X *33:4 9.3 
2 *33:4 *33:14 15.9643 
3 *33:14 *86:A1 9.3 
4 *33:14 *33:23 8.73214 
5 *33:23 *33:29 9.76786 
6 *33:29 *89:B 9.3 
7 *33:29 *92:A2 23.3536 
8 *33:23 *94:A1 16.9607 
9 *33:4 *88:A2 12.1036 
*END

*D_NET *34 0.00258719
*CONN
*I *97:A I *D sky130_fd_sc_hd__nand2_1
*I *93:A I *D sky130_fd_sc_hd__nor2_1
*I *114:A I *D sky130_fd_sc_hd__buf_2
*I *94:A4 I *D sky130_fd_sc_hd__a41o_1
*I *101:Q O *D sky130_fd_sc_hd__dfrtp_1
*CAP
1 *97:A 5.95659e-05
2 *93:A 2.23854e-05
3 *114:A 0.0001993
4 *94:A4 0.000299525
5 *101:Q 0
6 *34:27 0.000413397
7 *34:25 0.000328754
8 *34:4 0.000377002
9 *94:A4 *94:B1 1.92789e-05
10 *94:A4 *95:B2 0
11 *94:A4 *101:RESET_B 7.00171e-06
12 *94:A4 *116:A 0
13 *114:A *116:A 5.52238e-05
14 *34:25 *96:A 3.01126e-05
15 count[0] *114:A 2.47724e-05
16 *93:B *94:A4 0.000246049
17 *93:B *34:25 5.35423e-05
18 *93:B *34:27 0.00014285
19 *95:A1_N *94:A4 0
20 *95:A1_N *114:A 0.000113093
21 *95:A1_N *34:27 2.44318e-05
22 *96:B *94:A4 5.33005e-05
23 *98:B2 *97:A 2.51343e-06
24 *98:B2 *34:25 7.83659e-05
25 *98:C1 *94:A4 3.67257e-05
26 *111:A *94:A4 0
*RES
1 *101:Q *34:4 9.3 
2 *34:4 *94:A4 23.7643 
3 *34:4 *34:25 11.25 
4 *34:25 *34:27 3.41071 
5 *34:27 *114:A 13.1393 
6 *34:27 *93:A 9.72857 
7 *34:25 *97:A 10.2643 
*END

*D_NET *35 0.00193811
*CONN
*I *115:A I *D sky130_fd_sc_hd__buf_2
*I *97:B I *D sky130_fd_sc_hd__nand2_1
*I *96:A I *D sky130_fd_sc_hd__or2_1
*I *102:Q O *D sky130_fd_sc_hd__dfrtp_1
*CAP
1 *115:A 0
2 *97:B 0
3 *96:A 0.000132809
4 *102:Q 0.000238342
5 *35:14 0.000662575
6 *35:12 0.000768108
7 count[3] *35:12 1.19071e-05
8 *98:B2 *96:A 9.01238e-05
9 *102:CLK *96:A 0
10 *102:D *96:A 4.1331e-06
11 *34:25 *96:A 3.01126e-05
*RES
1 *102:Q *35:12 21.6036 
2 *35:12 *35:14 8.33929 
3 *35:14 *96:A 21.4607 
4 *35:14 *97:B 9.3 
5 *35:12 *115:A 9.3 
*END

*D_NET *36 0.00634179
*CONN
*I *94:B1 I *D sky130_fd_sc_hd__a41o_1
*I *92:A1 I *D sky130_fd_sc_hd__o211a_1
*I *86:B1 I *D sky130_fd_sc_hd__a21oi_1
*I *87:A1 I *D sky130_fd_sc_hd__a21o_1
*I *88:A1 I *D sky130_fd_sc_hd__o31a_1
*I *84:A I *D sky130_fd_sc_hd__inv_2
*I *106:X O *D sky130_fd_sc_hd__clkbuf_2
*CAP
1 *94:B1 0.000557404
2 *92:A1 7.29887e-05
3 *86:B1 0.000383696
4 *87:A1 0
5 *88:A1 0.000248298
6 *84:A 3.48266e-05
7 *106:X 0
8 *36:47 0.000456685
9 *36:45 0.0007898
10 *36:23 0.00040774
11 *36:10 0.000364048
12 *36:4 0.000402176
13 *84:A *85:A 2.19684e-05
14 *86:B1 *44:33 0.000178847
15 *88:A1 *88:A3 4.69993e-05
16 *92:A1 *44:33 9.11068e-05
17 *94:B1 *94:A3 1.11474e-05
18 *94:B1 *98:A2 9.0145e-05
19 *36:10 *85:A 3.93035e-05
20 *36:45 *92:B1 0
21 *36:45 *42:24 0
22 *88:A2 *88:A1 4.55687e-05
23 *88:B1 *88:A1 0.000144773
24 *90:A *36:23 9.90367e-05
25 *90:B *88:A1 5.17614e-05
26 *90:B *36:23 4.17014e-05
27 *91:B1 *36:10 0.000174369
28 *91:B1 *36:45 8.66063e-05
29 *93:B *86:B1 9.75935e-05
30 *93:B *92:A1 1.58163e-05
31 *94:A4 *94:B1 1.92789e-05
32 *96:B *94:B1 7.80666e-05
33 *98:A1 *36:45 2.49484e-05
34 *100:CLK *94:B1 0.000148903
35 *100:CLK *36:45 0.000170646
36 *100:D *36:45 0
37 *103:A *86:B1 3.18676e-05
38 *104:A *94:B1 2.48938e-05
39 *104:A *36:45 0.00014576
40 *105:A *94:B1 0.000125717
41 *19:10 *84:A 2.8266e-06
42 *19:10 *36:10 3.34672e-05
43 *19:23 *36:10 2.05938e-05
44 *19:23 *36:45 7.60306e-05
45 *21:12 *86:B1 0.000125412
46 *33:23 *86:B1 0.000358971
*RES
1 *106:X *36:4 9.3 
2 *36:4 *36:10 8.10714 
3 *36:10 *84:A 14.5321 
4 *36:10 *36:23 6.67857 
5 *36:23 *88:A1 14.3893 
6 *36:23 *87:A1 9.3 
7 *36:4 *36:45 9.82143 
8 *36:45 *36:47 4.5 
9 *36:47 *86:B1 18.4786 
10 *36:47 *92:A1 11.0679 
11 *36:45 *94:B1 22.6036 
*END

*D_NET *37 0.00324142
*CONN
*I *106:A I *D sky130_fd_sc_hd__clkbuf_2
*I *95:B1 I *D sky130_fd_sc_hd__a2bb2o_1
*I *108:X O *D sky130_fd_sc_hd__clkbuf_1
*CAP
1 *106:A 0.00046554
2 *95:B1 0.000482514
3 *108:X 0.00042228
4 *37:12 0.00137033
5 *95:B1 *43:29 0
6 *95:B1 *43:48 5.41573e-05
7 *106:A *99:RESET_B 0.00022729
8 *106:A *43:8 4.60522e-06
9 *94:A1 *95:B1 0
10 *95:A1_N *95:B1 4.46186e-06
11 *95:A2_N *95:B1 5.52302e-05
12 *99:D *95:B1 0
13 *99:D *37:12 7.6644e-05
14 *107:A *37:12 0
15 *108:A *37:12 0
16 *21:12 *95:B1 0
17 *33:14 *95:B1 0
18 *33:14 *37:12 7.83659e-05
19 *33:29 *95:B1 0
*RES
1 *108:X *37:12 23.9429 
2 *37:12 *95:B1 26.8536 
3 *37:12 *106:A 15.7286 
*END

*D_NET *38 0.000645241
*CONN
*I *87:A2 I *D sky130_fd_sc_hd__a21o_1
*I *109:X O *D sky130_fd_sc_hd__clkbuf_1
*CAP
1 *87:A2 0.000293625
2 *109:X 0.000293625
3 *87:A2 *85:A 1.02504e-05
4 *87:A2 *88:A3 2.84494e-05
5 *109:A *87:A2 1.92905e-05
*RES
1 *109:X *87:A2 31.725 
*END

*D_NET *39 0.00117167
*CONN
*I *91:A2 I *D sky130_fd_sc_hd__o211a_1
*I *110:X O *D sky130_fd_sc_hd__clkbuf_1
*CAP
1 *91:A2 0.000265772
2 *110:X 0.000265772
3 *91:A2 *99:RESET_B 7.35137e-05
4 *91:A2 *102:RESET_B 0.000104974
5 *91:A2 *42:8 5.52302e-05
6 *91:A2 *42:24 0.000227736
7 *91:A2 *44:12 0
8 *91:A1 *91:A2 4.10796e-05
9 *91:B1 *91:A2 3.57366e-05
10 *100:D *91:A2 0.000101859
11 *110:A *91:A2 0
*RES
1 *110:X *91:A2 35.1 
*END

*D_NET *40 0.000763563
*CONN
*I *95:B2 I *D sky130_fd_sc_hd__a2bb2o_1
*I *111:X O *D sky130_fd_sc_hd__clkbuf_1
*CAP
1 *95:B2 0.000159447
2 *111:X 0.000159447
3 *95:B2 *116:A 0.000267658
4 *94:A4 *95:B2 0
5 *95:A1_N *95:B2 0.000177011
*RES
1 *111:X *95:B2 31.9036 
*END

*D_NET *41 0.00134703
*CONN
*I *98:A2 I *D sky130_fd_sc_hd__o221a_1
*I *112:X O *D sky130_fd_sc_hd__clkbuf_1
*CAP
1 *98:A2 0.000477898
2 *112:X 0.000477898
3 *98:A2 *94:A3 3.69047e-06
4 *98:A2 *102:RESET_B 0
5 *94:B1 *98:A2 9.0145e-05
6 *105:A *98:A2 9.71197e-05
7 *32:8 *98:A2 0.000200274
*RES
1 *112:X *98:A2 36.7607 
*END

*D_NET *42 0.00533622
*CONN
*I *101:RESET_B I *D sky130_fd_sc_hd__dfrtp_1
*I *102:RESET_B I *D sky130_fd_sc_hd__dfrtp_1
*I *100:RESET_B I *D sky130_fd_sc_hd__dfrtp_1
*I *99:RESET_B I *D sky130_fd_sc_hd__dfrtp_1
*I *113:X O *D sky130_fd_sc_hd__dlymetal6s2s_1
*CAP
1 *101:RESET_B 0.000589168
2 *102:RESET_B 0.00101034
3 *100:RESET_B 0
4 *99:RESET_B 0.000544108
5 *113:X 0.000168661
6 *42:24 0.000552623
7 *42:8 0.000844218
8 *99:RESET_B *43:8 6.17899e-05
9 *102:RESET_B *44:12 0
10 *42:24 *92:B1 0
11 *91:A1 *99:RESET_B 0.000314466
12 *91:A2 *99:RESET_B 7.35137e-05
13 *91:A2 *102:RESET_B 0.000104974
14 *91:A2 *42:8 5.52302e-05
15 *91:A2 *42:24 0.000227736
16 *91:B1 *99:RESET_B 0.000152112
17 *94:A4 *101:RESET_B 7.00171e-06
18 *96:B *101:RESET_B 9.71197e-05
19 *98:A2 *102:RESET_B 0
20 *98:C1 *101:RESET_B 0.000122424
21 *100:CLK *102:RESET_B 0
22 *102:D *101:RESET_B 0.000183444
23 *106:A *99:RESET_B 0.00022729
24 *110:A *102:RESET_B 0
25 *112:A *102:RESET_B 0
26 *113:A *99:RESET_B 0
27 *36:45 *42:24 0
*RES
1 *113:X *42:8 16.8 
2 *42:8 *99:RESET_B 14.3661 
3 *42:8 *42:24 3.16071 
4 *42:24 *100:RESET_B 4.5 
5 *42:24 *102:RESET_B 11.6607 
6 *102:RESET_B *101:RESET_B 8.5 
*END

*D_NET *43 0.00722912
*CONN
*I *92:B1 I *D sky130_fd_sc_hd__o211a_1
*I *89:C I *D sky130_fd_sc_hd__nand4_1
*I *94:A2 I *D sky130_fd_sc_hd__a41o_1
*I *116:A I *D sky130_fd_sc_hd__buf_2
*I *86:A2 I *D sky130_fd_sc_hd__a21oi_1
*I *88:A3 I *D sky130_fd_sc_hd__o31a_1
*I *99:Q O *D sky130_fd_sc_hd__dfrtp_1
*CAP
1 *92:B1 0.000543161
2 *89:C 1.99857e-05
3 *94:A2 0.000143495
4 *116:A 0.000155091
5 *86:A2 3.62427e-05
6 *88:A3 0.000284703
7 *99:Q 0.00017395
8 *43:70 0.000676069
9 *43:48 0.000577045
10 *43:29 0.000711613
11 *43:23 0.000558791
12 *43:8 0.00050761
13 *88:A3 *85:A 8.54625e-05
14 *43:23 *85:A 4.35048e-05
15 *43:70 *85:A 0.000139913
16 count[0] *43:29 0.000161013
17 count[0] *43:48 0.000154889
18 *87:A2 *88:A3 2.84494e-05
19 *88:A1 *88:A3 4.69993e-05
20 *88:B1 *88:A3 8.07313e-05
21 *89:A *92:B1 2.89114e-05
22 *90:B *88:A3 5.52238e-05
23 *91:B1 *43:8 6.05161e-06
24 *92:A2 *92:B1 0.000149811
25 *94:A4 *116:A 0
26 *95:A1_N *116:A 7.21353e-05
27 *95:A1_N *43:48 7.90803e-05
28 *95:A2_N *94:A2 1.69961e-05
29 *95:A2_N *43:48 9.7659e-05
30 *95:B1 *43:29 0
31 *95:B1 *43:48 5.41573e-05
32 *95:B2 *116:A 0.000267658
33 *96:B *94:A2 0.000188586
34 *99:RESET_B *43:8 6.17899e-05
35 *100:CLK *92:B1 0
36 *100:D *92:B1 2.93304e-05
37 *101:D *43:48 9.25014e-06
38 *103:A *86:A2 9.60875e-05
39 *104:A *92:B1 3.93506e-05
40 *104:A *43:70 2.44318e-05
41 *106:A *43:8 4.60522e-06
42 *111:A *116:A 0.000148519
43 *114:A *116:A 5.52238e-05
44 *21:12 *88:A3 0.000249486
45 *21:12 *43:23 0.000117903
46 *23:8 *43:70 9.90431e-05
47 *33:14 *86:A2 2.59355e-05
48 *33:14 *43:29 1.88312e-05
49 *33:23 *86:A2 2.59355e-05
50 *33:29 *43:29 3.14048e-05
51 *33:29 *43:70 4.70078e-05
52 *36:45 *92:B1 0
53 *42:24 *92:B1 0
*RES
1 *99:Q *43:8 15.9786 
2 *43:8 *88:A3 20.5679 
3 *43:8 *43:23 6.14286 
4 *43:23 *43:29 11.6964 
5 *43:29 *86:A2 14.7464 
6 *43:29 *43:48 10.3929 
7 *43:48 *116:A 23.2107 
8 *43:48 *94:A2 11.4786 
9 *43:23 *43:70 3 
10 *43:70 *89:C 9.72857 
11 *43:70 *92:B1 26.55 
*END

*D_NET *44 0.00518294
*CONN
*I *92:C1 I *D sky130_fd_sc_hd__o211a_1
*I *94:A3 I *D sky130_fd_sc_hd__a41o_1
*I *89:D I *D sky130_fd_sc_hd__nand4_1
*I *85:A I *D sky130_fd_sc_hd__inv_2
*I *117:A I *D sky130_fd_sc_hd__buf_2
*I *100:Q O *D sky130_fd_sc_hd__dfrtp_1
*CAP
1 *92:C1 0
2 *94:A3 0.000348186
3 *89:D 0
4 *85:A 0.000237276
5 *117:A 1.5397e-05
6 *100:Q 0.000149728
7 *44:41 0.000355831
8 *44:33 0.00090556
9 *44:25 0.000778789
10 *44:12 0.000505094
11 *84:A *85:A 2.19684e-05
12 *86:B1 *44:33 0.000178847
13 *87:A2 *85:A 1.02504e-05
14 *88:A3 *85:A 8.54625e-05
15 *91:A2 *44:12 0
16 *91:B1 *85:A 8.06331e-05
17 *92:A1 *44:33 9.11068e-05
18 *94:B1 *94:A3 1.11474e-05
19 *96:B *94:A3 0.000135028
20 *98:A1 *94:A3 0.00013906
21 *98:A1 *44:41 4.87132e-05
22 *98:A2 *94:A3 3.69047e-06
23 *98:B1 *85:A 2.26327e-05
24 *98:B1 *94:A3 0.000133009
25 *98:B1 *44:41 9.48172e-05
26 *98:B2 *94:A3 5.83233e-05
27 *100:CLK *94:A3 0
28 *102:RESET_B *44:12 0
29 *104:A *85:A 5.33005e-05
30 *110:A *117:A 9.87617e-05
31 *110:A *44:12 0.000138548
32 *110:A *44:25 4.7812e-05
33 *112:A *117:A 5.68722e-05
34 *112:A *44:25 0.000110048
35 *21:12 *85:A 0
36 *33:29 *85:A 4.43256e-05
37 *36:10 *85:A 3.93035e-05
38 *43:23 *85:A 4.35048e-05
39 *43:70 *85:A 0.000139913
*RES
1 *100:Q *44:12 21.3893 
2 *44:12 *117:A 10.2464 
3 *44:12 *44:25 6.10714 
4 *44:25 *44:33 10.4107 
5 *44:33 *44:41 6.80357 
6 *44:41 *85:A 24.6393 
7 *44:41 *89:D 9.3 
8 *44:33 *94:A3 20.4607 
9 *44:25 *92:C1 9.3 
*END
