*SPEF "ieee 1481-1999"
*DESIGN "param_counter"
*DATE "00:16:09 Monday December 08, 2025"
*VENDOR "The OpenROAD Project"
*PROGRAM "OpenROAD"
*VERSION "edf00dff99f6c40d67a30c0e22a8191c5d2ed9d6"
*DESIGN_FLOW "NAME_SCOPE LOCAL" "PIN_CAP NONE"
*DIVIDER /
*DELIMITER :
*BUS_DELIMITER []
*T_UNIT 1 NS
*C_UNIT 1 PF
*R_UNIT 1 OHM
*L_UNIT 1 HENRY

*NAME_MAP
*3 clk
*4 count[0]
*5 count[1]
*6 count[2]
*7 count[3]
*8 en
*9 load
*10 load_value[0]
*11 load_value[1]
*12 load_value[2]
*13 load_value[3]
*14 rst_n
*15 _00_
*16 _01_
*17 _02_
*18 _03_
*19 _04_
*20 _05_
*21 _06_
*22 _07_
*23 _08_
*24 _09_
*25 _10_
*26 _11_
*27 _12_
*28 _13_
*29 _14_
*30 clknet_0_clk
*31 clknet_1_0__leaf_clk
*32 clknet_1_1__leaf_clk
*33 net1
*34 net10
*35 net11
*36 net12
*37 net2
*38 net3
*39 net4
*40 net5
*41 net6
*42 net7
*43 net8
*44 net9
*45 FILLER_0_18
*46 FILLER_0_27
*47 FILLER_0_29
*48 FILLER_0_41
*49 FILLER_0_6
*50 FILLER_1_13
*51 FILLER_1_29
*52 FILLER_1_41
*53 FILLER_2_27
*54 FILLER_2_37
*55 FILLER_3_28
*56 FILLER_4_3
*57 FILLER_4_37
*58 FILLER_5_3
*59 FILLER_7_17
*60 FILLER_7_26
*61 FILLER_7_29
*62 FILLER_7_41
*63 PHY_EDGE_ROW_0_Left_8
*64 PHY_EDGE_ROW_0_Right_0
*65 PHY_EDGE_ROW_1_Left_9
*66 PHY_EDGE_ROW_1_Right_1
*67 PHY_EDGE_ROW_2_Left_10
*68 PHY_EDGE_ROW_2_Right_2
*69 PHY_EDGE_ROW_3_Left_11
*70 PHY_EDGE_ROW_3_Right_3
*71 PHY_EDGE_ROW_4_Left_12
*72 PHY_EDGE_ROW_4_Right_4
*73 PHY_EDGE_ROW_5_Left_13
*74 PHY_EDGE_ROW_5_Right_5
*75 PHY_EDGE_ROW_6_Left_14
*76 PHY_EDGE_ROW_6_Right_6
*77 PHY_EDGE_ROW_7_Left_15
*78 PHY_EDGE_ROW_7_Right_7
*79 TAP_TAPCELL_ROW_0_16
*80 TAP_TAPCELL_ROW_2_17
*81 TAP_TAPCELL_ROW_4_18
*82 TAP_TAPCELL_ROW_6_19
*83 TAP_TAPCELL_ROW_7_20
*84 _15_
*85 _16_
*86 _17_
*87 _18_
*88 _19_
*89 _20_
*90 _21_
*91 _22_
*92 _23_
*93 _24_
*94 _25_
*95 _26_
*96 _27_
*97 _28_
*98 _29_
*99 _30_
*100 _31_
*101 _32_
*102 _33_
*103 clkbuf_0_clk
*104 clkbuf_1_0__f_clk
*105 clkbuf_1_1__f_clk
*106 fanout12
*107 input1
*108 input2
*109 input3
*110 input4
*111 input5
*112 input6
*113 input7
*114 output10
*115 output11
*116 output8
*117 output9

*PORTS
clk I
count[0] O
count[1] O
count[2] O
count[3] O
en I
load I
load_value[0] I
load_value[1] I
load_value[2] I
load_value[3] I
rst_n I

*D_NET *3 0.00106667
*CONN
*P clk I
*I *103:A I *D sky130_fd_sc_hd__clkbuf_16
*CAP
1 clk 0.000401948
2 *103:A 0
3 *3:15 0.000401948
4 *3:15 count[0] 3.49463e-05
5 *3:15 *86:A2 9.58714e-05
6 *3:15 *86:B1 3.22879e-05
7 *3:15 *101:CLK 0
8 *3:15 *12:11 3.25681e-05
9 *3:15 *21:8 5.67058e-05
10 *3:15 *33:23 1.03955e-05
*RES
1 clk *3:15 29.7603 
2 *3:15 *103:A 23 
*END

*D_NET *4 0.00238203
*CONN
*P count[0] O
*I *116:X O *D sky130_fd_sc_hd__buf_2
*CAP
1 count[0] 0.000264134
2 *116:X 0.000442983
3 *4:10 0.000707117
4 count[0] *8:17 2.12457e-05
5 count[0] *12:11 0
6 *4:10 *101:CLK 0.00024198
7 *4:10 *114:A 2.47702e-05
8 *4:10 *17:10 0.000109739
9 *4:10 *26:10 6.83179e-05
10 *4:10 *33:14 0.000125339
11 *4:10 *43:29 0.000177778
12 *4:10 *43:48 0.000163684
13 *3:15 count[0] 3.49463e-05
*RES
1 *116:X *4:10 49.7554 
2 *4:10 count[0] 8.9296 
*END

*D_NET *5 0.000550022
*CONN
*P count[1] O
*I *117:X O *D sky130_fd_sc_hd__buf_2
*CAP
1 count[1] 0.000176728
2 *117:X 0.000176728
3 count[1] *11:15 8.44976e-05
4 count[1] *13:15 0.000112069
*RES
1 *117:X count[1] 47.1648 
*END

*D_NET *6 0.000761479
*CONN
*P count[2] O
*I *114:X O *D sky130_fd_sc_hd__buf_2
*CAP
1 count[2] 8.65766e-05
2 *114:X 0.000278539
3 *6:14 0.000365116
4 count[2] *12:11 1.5289e-05
5 *6:14 *12:11 1.59585e-05
*RES
1 *114:X *6:14 49.9 
2 *6:14 count[2] 0.382667 
*END

*D_NET *7 0.000516648
*CONN
*P count[3] O
*I *115:X O *D sky130_fd_sc_hd__buf_2
*CAP
1 count[3] 0.000212592
2 *115:X 0.000212592
3 count[3] *13:15 7.90864e-05
4 count[3] *35:10 1.23773e-05
*RES
1 *115:X count[3] 47.1648 
*END

*D_NET *8 0.000759678
*CONN
*P en I
*I *107:A I *D sky130_fd_sc_hd__buf_1
*CAP
1 en 0.000353058
2 *107:A 0
3 *8:17 0.000353058
4 *8:17 *9:17 3.23168e-05
5 *8:17 *33:14 0
6 *8:17 *37:8 0
7 count[0] *8:17 2.12457e-05
*RES
1 en *8:17 28.2148 
2 *8:17 *107:A 23 
*END

*D_NET *9 0.000878544
*CONN
*P load I
*I *108:A I *D sky130_fd_sc_hd__clkbuf_1
*CAP
1 load 0.000423114
2 *108:A 0
3 *9:17 0.000423114
4 *9:17 *37:8 0
5 *8:17 *9:17 3.23168e-05
*RES
1 load *9:17 29.2712 
2 *9:17 *108:A 23 
*END

*D_NET *10 0.00100747
*CONN
*P load_value[0] I
*I *109:A I *D sky130_fd_sc_hd__clkbuf_1
*CAP
1 load_value[0] 0.000493995
2 *109:A 0.000493995
3 *109:A *38:10 1.94812e-05
*RES
1 load_value[0] *109:A 48.2743 
*END

*D_NET *11 0.00131256
*CONN
*P load_value[1] I
*I *110:A I *D sky130_fd_sc_hd__clkbuf_1
*CAP
1 load_value[1] 0.000409777
2 *110:A 0
3 *11:15 0.000409777
4 *11:15 *102:RESET_B 0
5 *11:15 *113:A 8.06147e-05
6 *11:15 *117:A 9.91024e-05
7 *11:15 *13:15 2.79292e-05
8 *11:15 *39:8 0
9 *11:15 *44:8 0.000153144
10 *11:15 *44:25 4.77213e-05
11 count[1] *11:15 8.44976e-05
*RES
1 load_value[1] *11:15 29.4262 
2 *11:15 *110:A 23 
*END

*D_NET *12 0.00168561
*CONN
*P load_value[2] I
*I *111:A I *D sky130_fd_sc_hd__clkbuf_1
*CAP
1 load_value[2] 0.000733514
2 *111:A 0
3 *12:11 0.000733514
4 *12:11 *93:B 0
5 *12:11 *34:14 0
6 *12:11 *43:56 0.000154766
7 count[0] *12:11 0
8 count[2] *12:11 1.5289e-05
9 *3:15 *12:11 3.25681e-05
10 *6:14 *12:11 1.59585e-05
*RES
1 load_value[2] *12:11 28.8112 
2 *12:11 *111:A 23 
*END

*D_NET *13 0.00141109
*CONN
*P load_value[3] I
*I *112:A I *D sky130_fd_sc_hd__clkbuf_1
*CAP
1 load_value[3] 0.000511758
2 *112:A 0
3 *13:15 0.000511758
4 *13:15 *102:RESET_B 0
5 *13:15 *117:A 5.73288e-05
6 *13:15 *44:25 0.000111164
7 count[1] *13:15 0.000112069
8 count[3] *13:15 7.90864e-05
9 *11:15 *13:15 2.79292e-05
*RES
1 load_value[3] *13:15 30.0714 
2 *13:15 *112:A 23 
*END

*D_NET *14 0.000450208
*CONN
*P rst_n I
*I *113:A I *D sky130_fd_sc_hd__dlymetal6s2s_1
*CAP
1 rst_n 0.000184797
2 *113:A 0.000184797
3 *113:A *99:RESET_B 0
4 *11:15 *113:A 8.06147e-05
*RES
1 rst_n *113:A 47.0789 
*END

*D_NET *15 0.000248328
*CONN
*I *99:D I *D sky130_fd_sc_hd__dfrtp_1
*I *88:X O *D sky130_fd_sc_hd__o31a_1
*CAP
1 *99:D 0
2 *88:X 7.47625e-05
3 *15:8 7.47625e-05
4 *15:8 *21:12 0
5 *15:8 *33:14 1.47563e-05
6 *15:8 *37:8 8.4047e-05
7 *15:8 *37:20 0
*RES
1 *88:X *15:8 39.5536 
2 *15:8 *99:D 38 
*END

*D_NET *16 0.000617511
*CONN
*I *100:D I *D sky130_fd_sc_hd__dfrtp_1
*I *91:X O *D sky130_fd_sc_hd__o211a_1
*CAP
1 *100:D 0
2 *91:X 0.000240384
3 *16:10 0.000240384
4 *16:10 *91:A2 0.000106277
5 *16:10 *36:45 0
6 *16:10 *43:89 3.04661e-05
*RES
1 *91:X *16:10 41.9564 
2 *16:10 *100:D 38 
*END

*D_NET *17 0.000484408
*CONN
*I *101:D I *D sky130_fd_sc_hd__dfrtp_1
*I *95:X O *D sky130_fd_sc_hd__a2bb2o_1
*CAP
1 *101:D 0
2 *95:X 0.000157144
3 *17:10 0.000157144
4 *17:10 *95:A1_N 5.37348e-06
5 *17:10 *26:10 4.48624e-05
6 *17:10 *43:48 1.01436e-05
7 *4:10 *17:10 0.000109739
*RES
1 *95:X *17:10 40.6514 
2 *17:10 *101:D 38 
*END

*D_NET *18 0.000622429
*CONN
*I *102:D I *D sky130_fd_sc_hd__dfrtp_1
*I *98:X O *D sky130_fd_sc_hd__o221a_1
*CAP
1 *102:D 8.32927e-05
2 *98:X 7.86318e-05
3 *18:8 0.000161924
4 *102:D *101:RESET_B 0.000183451
5 *18:8 *100:CLK 1.14452e-05
6 *18:8 *102:CLK 9.94675e-05
7 *18:8 *35:20 4.21594e-06
*RES
1 *98:X *18:8 39.5536 
2 *18:8 *102:D 40.0507 
*END

*D_NET *19 0.00290034
*CONN
*I *98:A1 I *D sky130_fd_sc_hd__o221a_1
*I *89:A I *D sky130_fd_sc_hd__nand4_1
*I *91:A1 I *D sky130_fd_sc_hd__o211a_1
*I *84:Y O *D sky130_fd_sc_hd__inv_2
*CAP
1 *98:A1 0.000224578
2 *89:A 2.10561e-05
3 *91:A1 9.59917e-05
4 *84:Y 0.000144558
5 *19:23 0.000467086
6 *19:10 0.000462001
7 *89:A *104:A 2.93845e-05
8 *89:A *43:89 2.93845e-05
9 *91:A1 *91:A2 4.344e-05
10 *91:A1 *91:B1 9.45591e-05
11 *91:A1 *91:C1 5.50106e-05
12 *91:A1 *99:RESET_B 0.000314839
13 *98:A1 *94:A3 0.000144904
14 *98:A1 *104:A 0.000187986
15 *98:A1 *105:A 0.000206577
16 *98:A1 *36:45 2.60152e-05
17 *98:A1 *44:41 4.95477e-05
18 *19:10 *84:A 2.76611e-06
19 *19:10 *90:A 0.00010018
20 *19:10 *24:8 4.96264e-05
21 *19:10 *36:10 3.31683e-05
22 *19:23 *91:B1 0
23 *19:23 *24:8 1.83667e-05
24 *19:23 *36:10 2.01531e-05
25 *19:23 *36:45 7.91596e-05
*RES
1 *84:Y *19:10 40.6514 
2 *19:10 *91:A1 41.9771 
3 *19:10 *19:23 3.31429 
4 *19:23 *89:A 38.6214 
5 *19:23 *98:A1 44.1314 
*END

*D_NET *20 0.000589165
*CONN
*I *90:A I *D sky130_fd_sc_hd__nand2_1
*I *85:Y O *D sky130_fd_sc_hd__inv_2
*CAP
1 *90:A 0.000126647
2 *85:Y 0.000126647
3 *90:A *90:B 0.000137211
4 *90:A *36:23 9.84794e-05
5 *19:10 *90:A 0.00010018
*RES
1 *85:Y *90:A 49.9771 
*END

*D_NET *21 0.00281332
*CONN
*I *87:B1 I *D sky130_fd_sc_hd__a21o_1
*I *90:B I *D sky130_fd_sc_hd__nand2_1
*I *86:Y O *D sky130_fd_sc_hd__a21oi_1
*CAP
1 *87:B1 0
2 *90:B 0.000240803
3 *86:Y 0.000237599
4 *21:12 0.000630711
5 *21:8 0.000627507
6 *90:B *88:A1 5.25848e-05
7 *90:B *88:A3 5.50049e-05
8 *90:B *36:23 4.21471e-05
9 *21:8 *86:B1 0.000126781
10 *21:12 *88:A3 0.000276775
11 *21:12 *94:A1 0.000115013
12 *21:12 *98:B1 0
13 *21:12 *33:29 8.4047e-05
14 *21:12 *37:20 0
15 *21:12 *43:23 0.000130433
16 *21:12 *44:49 0
17 *90:A *90:B 0.000137211
18 *3:15 *21:8 5.67058e-05
19 *15:8 *21:12 0
*RES
1 *86:Y *21:8 42.4329 
2 *21:8 *21:12 23.9486 
3 *21:12 *90:B 28.9036 
4 *21:12 *87:B1 23 
*END

*D_NET *22 0.000267905
*CONN
*I *88:B1 I *D sky130_fd_sc_hd__o31a_1
*I *87:X O *D sky130_fd_sc_hd__a21o_1
*CAP
1 *88:B1 2.1227e-05
2 *87:X 2.1227e-05
3 *88:B1 *88:A1 0.000143655
4 *88:B1 *88:A3 8.1796e-05
*RES
1 *87:X *88:B1 47.5743 
*END

*D_NET *23 0.00229062
*CONN
*I *98:B1 I *D sky130_fd_sc_hd__o221a_1
*I *91:B1 I *D sky130_fd_sc_hd__o211a_1
*I *89:Y O *D sky130_fd_sc_hd__nand4_1
*CAP
1 *98:B1 0.000283873
2 *91:B1 0.000249073
3 *89:Y 5.15114e-05
4 *23:8 0.000584457
5 *91:B1 *91:A2 3.91386e-05
6 *91:B1 *91:C1 5.50106e-05
7 *91:B1 *99:RESET_B 0.000151436
8 *91:B1 *36:10 0.000177277
9 *91:B1 *36:45 8.60475e-05
10 *91:B1 *43:8 6.17437e-06
11 *91:B1 *44:49 8.41012e-05
12 *98:B1 *93:B 4.73585e-05
13 *98:B1 *94:A1 0
14 *98:B1 *94:A3 0.000138725
15 *98:B1 *28:10 6.07611e-06
16 *98:B1 *29:10 1.14452e-05
17 *98:B1 *44:41 0.000102338
18 *98:B1 *44:49 2.3529e-05
19 *23:8 *43:70 9.84851e-05
20 *91:A1 *91:B1 9.45591e-05
21 *19:23 *91:B1 0
22 *21:12 *98:B1 0
*RES
1 *89:Y *23:8 39.0979 
2 *23:8 *91:B1 45.1879 
3 *23:8 *98:B1 44.4836 
*END

*D_NET *24 0.000434154
*CONN
*I *91:C1 I *D sky130_fd_sc_hd__o211a_1
*I *90:Y O *D sky130_fd_sc_hd__nand2_1
*CAP
1 *91:C1 1.49804e-05
2 *90:Y 0.000113089
3 *24:8 0.00012807
4 *91:A1 *91:C1 5.50106e-05
5 *91:B1 *91:C1 5.50106e-05
6 *19:10 *24:8 4.96264e-05
7 *19:23 *24:8 1.83667e-05
*RES
1 *90:Y *24:8 39.9057 
2 *24:8 *91:C1 38.6214 
*END

*D_NET *25 0.00236912
*CONN
*I *93:B I *D sky130_fd_sc_hd__nor2_1
*I *92:X O *D sky130_fd_sc_hd__o211a_1
*CAP
1 *93:B 0.000384417
2 *92:X 0.000392085
3 *25:8 0.000776501
4 *93:B *94:A1 0
5 *93:B *28:10 0.000187996
6 *93:B *29:10 0
7 *93:B *34:14 0.000272303
8 *93:B *34:25 5.36457e-05
9 *93:B *34:27 0.000141954
10 *25:8 *86:B1 9.69469e-05
11 *25:8 *92:A1 1.59094e-05
12 *98:B1 *93:B 4.73585e-05
13 *12:11 *93:B 0
*RES
1 *92:X *25:8 42.9093 
2 *25:8 *93:B 47.4664 
*END

*D_NET *26 0.00154185
*CONN
*I *95:A1_N I *D sky130_fd_sc_hd__a2bb2o_1
*I *93:Y O *D sky130_fd_sc_hd__nor2_1
*CAP
1 *95:A1_N 6.18476e-05
2 *93:Y 0.000379688
3 *26:10 0.000441536
4 *95:A1_N *95:A2_N 5.3304e-05
5 *26:10 *114:A 0.000114866
6 *26:10 *34:14 0
7 *26:10 *34:27 2.4754e-05
8 *26:10 *37:20 4.6318e-06
9 *26:10 *40:10 0.000183483
10 *26:10 *43:48 8.72173e-05
11 *26:10 *43:56 7.19717e-05
12 *4:10 *26:10 6.83179e-05
13 *17:10 *95:A1_N 5.37348e-06
14 *17:10 *26:10 4.48624e-05
*RES
1 *93:Y *26:10 47.2593 
2 *26:10 *95:A1_N 39.0979 
*END

*D_NET *27 0.00180562
*CONN
*I *96:B I *D sky130_fd_sc_hd__or2_1
*I *95:A2_N I *D sky130_fd_sc_hd__a2bb2o_1
*I *94:X O *D sky130_fd_sc_hd__a41o_1
*CAP
1 *96:B 0
2 *95:A2_N 0.000111689
3 *94:X 0
4 *27:23 0.00025801
5 *27:4 0.000369699
6 *95:A2_N *94:A2 1.72202e-05
7 *95:A2_N *37:20 5.50106e-05
8 *95:A2_N *43:48 9.91798e-05
9 *27:23 *94:A2 0.000187129
10 *27:23 *94:A3 0.000135037
11 *27:23 *94:B1 7.82803e-05
12 *27:23 *101:RESET_B 9.67842e-05
13 *27:23 *28:10 0.0002301
14 *27:23 *29:10 6.08751e-05
15 *27:23 *34:14 5.3304e-05
16 *95:A1_N *95:A2_N 5.3304e-05
*RES
1 *94:X *27:4 23 
2 *27:4 *95:A2_N 26.0243 
3 *27:4 *27:23 37.4364 
4 *27:23 *96:B 23 
*END

*D_NET *28 0.00111467
*CONN
*I *98:C1 I *D sky130_fd_sc_hd__o221a_1
*I *96:X O *D sky130_fd_sc_hd__or2_1
*CAP
1 *98:C1 0
2 *96:X 0.000258819
3 *28:10 0.000258819
4 *28:10 *101:RESET_B 0.000124023
5 *28:10 *29:10 1.17049e-05
6 *28:10 *34:14 3.71369e-05
7 *93:B *28:10 0.000187996
8 *98:B1 *28:10 6.07611e-06
9 *27:23 *28:10 0.0002301
*RES
1 *96:X *28:10 44.09 
2 *28:10 *98:C1 38 
*END

*D_NET *29 0.000844602
*CONN
*I *98:B2 I *D sky130_fd_sc_hd__o221a_1
*I *97:Y O *D sky130_fd_sc_hd__nand2_1
*CAP
1 *98:B2 0
2 *97:Y 0.000256561
3 *29:10 0.000256561
4 *29:10 *94:A3 6.48049e-05
5 *29:10 *97:A 2.45549e-06
6 *29:10 *34:25 8.62876e-05
7 *29:10 *35:20 9.39056e-05
8 *93:B *29:10 0
9 *98:B1 *29:10 1.14452e-05
10 *27:23 *29:10 6.08751e-05
11 *28:10 *29:10 1.17049e-05
*RES
1 *97:Y *29:10 43.3443 
2 *29:10 *98:B2 38 
*END

*D_NET *30 0.00182083
*CONN
*I *105:A I *D sky130_fd_sc_hd__clkbuf_16
*I *104:A I *D sky130_fd_sc_hd__clkbuf_16
*I *103:X O *D sky130_fd_sc_hd__clkbuf_16
*CAP
1 *105:A 0.000139237
2 *104:A 0.000155863
3 *103:X 0
4 *30:6 0.0002951
5 *104:A *94:B1 2.77955e-05
6 *104:A *33:29 0.000139352
7 *104:A *33:42 8.264e-05
8 *104:A *36:45 0.000160191
9 *104:A *43:70 2.4754e-05
10 *104:A *43:89 3.97181e-05
11 *104:A *44:49 5.3304e-05
12 *105:A *94:B1 0.000138708
13 *105:A *98:A2 9.67842e-05
14 *105:A *100:CLK 3.72639e-05
15 *105:A *32:8 6.17437e-06
16 *89:A *104:A 2.93845e-05
17 *98:A1 *104:A 0.000187986
18 *98:A1 *105:A 0.000206577
*RES
1 *103:X *30:6 38 
2 *30:6 *104:A 43.1371 
3 *30:6 *105:A 42.06 
*END

*D_NET *31 0.00149541
*CONN
*I *101:CLK I *D sky130_fd_sc_hd__dfrtp_1
*I *99:CLK I *D sky130_fd_sc_hd__dfrtp_1
*I *104:X O *D sky130_fd_sc_hd__clkbuf_16
*CAP
1 *101:CLK 0.000338996
2 *99:CLK 0.00010455
3 *104:X 0
4 *31:6 0.000443546
5 *99:CLK *33:14 0.000225952
6 *101:CLK *33:14 0.000140383
7 *3:15 *101:CLK 0
8 *4:10 *101:CLK 0.00024198
*RES
1 *104:X *31:6 38 
2 *31:6 *99:CLK 40.9621 
3 *31:6 *101:CLK 46.2443 
*END

*D_NET *32 0.00248059
*CONN
*I *102:CLK I *D sky130_fd_sc_hd__dfrtp_1
*I *100:CLK I *D sky130_fd_sc_hd__dfrtp_1
*I *105:X O *D sky130_fd_sc_hd__clkbuf_16
*CAP
1 *102:CLK 0.000102217
2 *100:CLK 0.000305679
3 *105:X 0.000478623
4 *32:8 0.000886518
5 *100:CLK *94:A3 0
6 *100:CLK *94:B1 0.000164282
7 *100:CLK *102:RESET_B 0
8 *100:CLK *33:42 0
9 *100:CLK *36:45 0.000187977
10 *100:CLK *43:89 0
11 *102:CLK *35:20 0
12 *32:8 *98:A2 0.00020094
13 *105:A *100:CLK 3.72639e-05
14 *105:A *32:8 6.17437e-06
15 *18:8 *100:CLK 1.14452e-05
16 *18:8 *102:CLK 9.94675e-05
*RES
1 *105:X *32:8 44.815 
2 *32:8 *100:CLK 44.4836 
3 *32:8 *102:CLK 39.9057 
*END

*D_NET *33 0.00552405
*CONN
*I *88:A2 I *D sky130_fd_sc_hd__o31a_1
*I *94:A1 I *D sky130_fd_sc_hd__a41o_1
*I *92:A2 I *D sky130_fd_sc_hd__o211a_1
*I *89:B I *D sky130_fd_sc_hd__nand4_1
*I *86:A1 I *D sky130_fd_sc_hd__a21oi_1
*I *107:X O *D sky130_fd_sc_hd__buf_1
*CAP
1 *88:A2 0.000155619
2 *94:A1 0.000234533
3 *92:A2 0
4 *89:B 0
5 *86:A1 0
6 *107:X 0
7 *33:42 0.000407191
8 *33:29 0.000824168
9 *33:23 0.000964356
10 *33:14 0.000654656
11 *33:4 0.000497427
12 *88:A2 *88:A1 4.6011e-05
13 *94:A1 *37:20 0
14 *33:14 *86:A2 2.64616e-05
15 *33:14 *37:8 8.62876e-05
16 *33:14 *37:20 0
17 *33:14 *43:29 1.96186e-05
18 *33:23 *86:A2 2.64616e-05
19 *33:23 *86:B1 0.000356724
20 *33:29 *37:20 0
21 *33:29 *43:29 3.16665e-05
22 *33:29 *43:70 4.75206e-05
23 *33:29 *44:49 4.5051e-05
24 *33:42 *43:89 0.000162419
25 *93:B *94:A1 0
26 *98:B1 *94:A1 0
27 *99:CLK *33:14 0.000225952
28 *100:CLK *33:42 0
29 *101:CLK *33:14 0.000140383
30 *104:A *33:29 0.000139352
31 *104:A *33:42 8.264e-05
32 *3:15 *33:23 1.03955e-05
33 *4:10 *33:14 0.000125339
34 *8:17 *33:14 0
35 *15:8 *33:14 1.47563e-05
36 *21:12 *94:A1 0.000115013
37 *21:12 *33:29 8.4047e-05
*RES
1 *107:X *33:4 23 
2 *33:4 *33:14 38.0786 
3 *33:14 *86:A1 23 
4 *33:14 *33:23 19.9093 
5 *33:23 *33:29 21.1107 
6 *33:29 *89:B 23 
7 *33:29 *33:42 35.8621 
8 *33:42 *92:A2 23 
9 *33:23 *94:A1 41.6664 
10 *33:4 *88:A2 26.2521 
*END

*D_NET *34 0.0028195
*CONN
*I *97:A I *D sky130_fd_sc_hd__nand2_1
*I *93:A I *D sky130_fd_sc_hd__nor2_1
*I *114:A I *D sky130_fd_sc_hd__buf_2
*I *94:A4 I *D sky130_fd_sc_hd__a41o_1
*I *101:Q O *D sky130_fd_sc_hd__dfrtp_1
*CAP
1 *97:A 6.6443e-05
2 *93:A 2.34823e-05
3 *114:A 0.000216055
4 *94:A4 0
5 *101:Q 0
6 *34:27 0.000444558
7 *34:25 0.0003666
8 *34:14 0.00034186
9 *34:4 0.000436996
10 *114:A *43:56 5.50049e-05
11 *34:14 *94:B1 1.94693e-05
12 *34:14 *101:RESET_B 6.8403e-06
13 *34:14 *40:10 0
14 *34:14 *43:56 0
15 *34:25 *35:20 3.07161e-05
16 *93:B *34:14 0.000272303
17 *93:B *34:25 5.36457e-05
18 *93:B *34:27 0.000141954
19 *4:10 *114:A 2.47702e-05
20 *12:11 *34:14 0
21 *26:10 *114:A 0.000114866
22 *26:10 *34:14 0
23 *26:10 *34:27 2.4754e-05
24 *27:23 *34:14 5.3304e-05
25 *28:10 *34:14 3.71369e-05
26 *29:10 *97:A 2.45549e-06
27 *29:10 *34:25 8.62876e-05
*RES
1 *101:Q *34:4 23 
2 *34:4 *34:14 36.3386 
3 *34:14 *94:A4 23 
4 *34:4 *34:25 32.61 
5 *34:25 *34:27 3.95643 
6 *34:27 *114:A 27.4536 
7 *34:27 *93:A 23.4971 
8 *34:25 *97:A 24.1186 
*END

*D_NET *35 0.00211456
*CONN
*I *115:A I *D sky130_fd_sc_hd__buf_2
*I *97:B I *D sky130_fd_sc_hd__nand2_1
*I *96:A I *D sky130_fd_sc_hd__or2_1
*I *102:Q O *D sky130_fd_sc_hd__dfrtp_1
*CAP
1 *115:A 0
2 *97:B 0
3 *96:A 0
4 *102:Q 0.000259378
5 *35:20 0.000153664
6 *35:14 0.000727297
7 *35:12 0.000573633
8 *35:10 0.000259378
9 count[3] *35:10 1.23773e-05
10 *102:CLK *35:20 0
11 *18:8 *35:20 4.21594e-06
12 *29:10 *35:20 9.39056e-05
13 *34:25 *35:20 3.07161e-05
*RES
1 *102:Q *35:10 41.8321 
2 *35:10 *35:12 15 
3 *35:12 *35:14 9.67357 
4 *35:14 *35:20 33.6664 
5 *35:20 *96:A 23 
6 *35:14 *97:B 23 
7 *35:12 *115:A 23 
*END

*D_NET *36 0.00694773
*CONN
*I *94:B1 I *D sky130_fd_sc_hd__a41o_1
*I *92:A1 I *D sky130_fd_sc_hd__o211a_1
*I *86:B1 I *D sky130_fd_sc_hd__a21oi_1
*I *87:A1 I *D sky130_fd_sc_hd__a21o_1
*I *88:A1 I *D sky130_fd_sc_hd__o31a_1
*I *84:A I *D sky130_fd_sc_hd__inv_2
*I *106:X O *D sky130_fd_sc_hd__clkbuf_2
*CAP
1 *94:B1 0.000617753
2 *92:A1 8.5655e-05
3 *86:B1 0.000445466
4 *87:A1 0
5 *88:A1 0.000267976
6 *84:A 4.03982e-05
7 *106:X 0
8 *36:47 0.000531121
9 *36:45 0.000910582
10 *36:23 0.000437495
11 *36:10 0.000416498
12 *36:4 0.00049941
13 *84:A *44:49 2.22079e-05
14 *86:B1 *44:33 0.000178517
15 *88:A1 *88:A3 4.75937e-05
16 *92:A1 *44:33 9.2964e-05
17 *94:B1 *94:A3 1.08906e-05
18 *94:B1 *98:A2 9.17998e-05
19 *36:10 *44:49 3.8586e-05
20 *36:45 *42:24 0
21 *36:45 *43:89 0
22 *88:A2 *88:A1 4.6011e-05
23 *88:B1 *88:A1 0.000143655
24 *90:A *36:23 9.84794e-05
25 *90:B *88:A1 5.25848e-05
26 *90:B *36:23 4.21471e-05
27 *91:B1 *36:10 0.000177277
28 *91:B1 *36:45 8.60475e-05
29 *98:A1 *36:45 2.60152e-05
30 *100:CLK *94:B1 0.000164282
31 *100:CLK *36:45 0.000187977
32 *104:A *94:B1 2.77955e-05
33 *104:A *36:45 0.000160191
34 *105:A *94:B1 0.000138708
35 *3:15 *86:B1 3.22879e-05
36 *16:10 *36:45 0
37 *19:10 *84:A 2.76611e-06
38 *19:10 *36:10 3.31683e-05
39 *19:23 *36:10 2.01531e-05
40 *19:23 *36:45 7.91596e-05
41 *21:8 *86:B1 0.000126781
42 *25:8 *86:B1 9.69469e-05
43 *25:8 *92:A1 1.59094e-05
44 *27:23 *94:B1 7.82803e-05
45 *33:23 *86:B1 0.000356724
46 *34:14 *94:B1 1.94693e-05
*RES
1 *106:X *36:4 23 
2 *36:4 *36:10 19.1843 
3 *36:10 *84:A 38.8493 
4 *36:10 *36:23 17.5271 
5 *36:23 *88:A1 28.9036 
6 *36:23 *87:A1 23 
7 *36:4 *36:45 21.1729 
8 *36:45 *36:47 15 
9 *36:47 *86:B1 33.6471 
10 *36:47 *92:A1 25.0507 
11 *36:45 *94:B1 48.2121 
*END

*D_NET *37 0.00358072
*CONN
*I *106:A I *D sky130_fd_sc_hd__clkbuf_2
*I *95:B1 I *D sky130_fd_sc_hd__a2bb2o_1
*I *108:X O *D sky130_fd_sc_hd__clkbuf_1
*CAP
1 *106:A 0.000497155
2 *95:B1 0
3 *108:X 0.000276645
4 *37:20 0.00054444
5 *37:12 0.00125585
6 *37:8 0.000490898
7 *106:A *99:RESET_B 0.000227019
8 *106:A *43:8 4.48884e-06
9 *37:20 *43:29 0
10 *37:20 *43:48 5.42488e-05
11 *94:A1 *37:20 0
12 *95:A2_N *37:20 5.50106e-05
13 *8:17 *37:8 0
14 *9:17 *37:8 0
15 *15:8 *37:8 8.4047e-05
16 *15:8 *37:20 0
17 *21:12 *37:20 0
18 *26:10 *37:20 4.6318e-06
19 *33:14 *37:8 8.62876e-05
20 *33:14 *37:20 0
21 *33:29 *37:20 0
*RES
1 *108:X *37:8 42.0186 
2 *37:8 *37:12 17.5271 
3 *37:12 *37:20 39.9221 
4 *37:20 *95:B1 23 
5 *37:12 *106:A 30.4571 
*END

*D_NET *38 0.000699035
*CONN
*I *87:A2 I *D sky130_fd_sc_hd__a21o_1
*I *109:X O *D sky130_fd_sc_hd__clkbuf_1
*CAP
1 *87:A2 0
2 *109:X 0.000319247
3 *38:10 0.000319247
4 *38:10 *88:A3 2.96154e-05
5 *38:10 *44:49 1.14452e-05
6 *109:A *38:10 1.94812e-05
*RES
1 *109:X *38:10 42.785 
2 *38:10 *87:A2 38 
*END

*D_NET *39 0.00129168
*CONN
*I *91:A2 I *D sky130_fd_sc_hd__o211a_1
*I *110:X O *D sky130_fd_sc_hd__clkbuf_1
*CAP
1 *91:A2 0.000126407
2 *110:X 0.000176105
3 *39:8 0.000302511
4 *91:A2 *99:RESET_B 7.34077e-05
5 *91:A2 *42:8 5.50106e-05
6 *39:8 *102:RESET_B 0.000116314
7 *39:8 *42:24 0.00025307
8 *39:8 *44:8 0
9 *91:A1 *91:A2 4.344e-05
10 *91:B1 *91:A2 3.91386e-05
11 *11:15 *39:8 0
12 *16:10 *91:A2 0.000106277
*RES
1 *110:X *39:8 42.7229 
2 *39:8 *91:A2 41.9771 
*END

*D_NET *40 0.000868072
*CONN
*I *95:B2 I *D sky130_fd_sc_hd__a2bb2o_1
*I *111:X O *D sky130_fd_sc_hd__clkbuf_1
*CAP
1 *95:B2 0
2 *111:X 0.000194417
3 *40:10 0.000194417
4 *40:10 *43:56 0.000295755
5 *26:10 *40:10 0.000183483
6 *34:14 *40:10 0
*RES
1 *111:X *40:10 42.9921 
2 *40:10 *95:B2 38 
*END

*D_NET *41 0.00150987
*CONN
*I *98:A2 I *D sky130_fd_sc_hd__o221a_1
*I *112:X O *D sky130_fd_sc_hd__clkbuf_1
*CAP
1 *98:A2 0.00044675
2 *112:X 0.000111566
3 *41:8 0.000558316
4 *98:A2 *94:A3 3.7122e-06
5 *41:8 *102:RESET_B 0
6 *94:B1 *98:A2 9.17998e-05
7 *105:A *98:A2 9.67842e-05
8 *32:8 *98:A2 0.00020094
*RES
1 *112:X *41:8 39.9057 
2 *41:8 *98:A2 46.7207 
*END

*D_NET *42 0.00570949
*CONN
*I *101:RESET_B I *D sky130_fd_sc_hd__dfrtp_1
*I *102:RESET_B I *D sky130_fd_sc_hd__dfrtp_1
*I *100:RESET_B I *D sky130_fd_sc_hd__dfrtp_1
*I *99:RESET_B I *D sky130_fd_sc_hd__dfrtp_1
*I *113:X O *D sky130_fd_sc_hd__dlymetal6s2s_1
*CAP
1 *101:RESET_B 0.000632592
2 *102:RESET_B 0.00110303
3 *100:RESET_B 0
4 *99:RESET_B 0.000588396
5 *113:X 0.000178695
6 *42:24 0.000622719
7 *42:8 0.000919375
8 *99:RESET_B *43:8 6.24895e-05
9 *102:RESET_B *44:8 0
10 *42:24 *43:89 0
11 *91:A1 *99:RESET_B 0.000314839
12 *91:A2 *99:RESET_B 7.34077e-05
13 *91:A2 *42:8 5.50106e-05
14 *91:B1 *99:RESET_B 0.000151436
15 *100:CLK *102:RESET_B 0
16 *102:D *101:RESET_B 0.000183451
17 *106:A *99:RESET_B 0.000227019
18 *113:A *99:RESET_B 0
19 *11:15 *102:RESET_B 0
20 *13:15 *102:RESET_B 0
21 *27:23 *101:RESET_B 9.67842e-05
22 *28:10 *101:RESET_B 0.000124023
23 *34:14 *101:RESET_B 6.8403e-06
24 *36:45 *42:24 0
25 *39:8 *102:RESET_B 0.000116314
26 *39:8 *42:24 0.00025307
27 *41:8 *102:RESET_B 0
*RES
1 *113:X *42:8 41.48 
2 *42:8 *99:RESET_B 26.4446 
3 *42:8 *42:24 3.66643 
4 *42:24 *100:RESET_B 15 
5 *42:24 *102:RESET_B 23.3064 
6 *102:RESET_B *101:RESET_B 9.86 
*END

*D_NET *43 0.00792785
*CONN
*I *92:B1 I *D sky130_fd_sc_hd__o211a_1
*I *89:C I *D sky130_fd_sc_hd__nand4_1
*I *94:A2 I *D sky130_fd_sc_hd__a41o_1
*I *116:A I *D sky130_fd_sc_hd__buf_2
*I *86:A2 I *D sky130_fd_sc_hd__a21oi_1
*I *88:A3 I *D sky130_fd_sc_hd__o31a_1
*I *99:Q O *D sky130_fd_sc_hd__dfrtp_1
*CAP
1 *92:B1 0
2 *89:C 2.0995e-05
3 *94:A2 0.000146088
4 *116:A 0
5 *86:A2 4.85977e-05
6 *88:A3 0.000325336
7 *99:Q 0.000187666
8 *43:89 0.000595093
9 *43:70 0.000747443
10 *43:56 0.000194143
11 *43:48 0.000661065
12 *43:29 0.000815824
13 *43:23 0.000640221
14 *43:8 0.000575475
15 *88:A3 *44:49 8.58383e-05
16 *43:23 *44:49 4.3407e-05
17 *43:70 *44:49 0.000139357
18 *88:A1 *88:A3 4.75937e-05
19 *88:B1 *88:A3 8.1796e-05
20 *89:A *43:89 2.93845e-05
21 *90:B *88:A3 5.50049e-05
22 *91:B1 *43:8 6.17437e-06
23 *95:A2_N *94:A2 1.72202e-05
24 *95:A2_N *43:48 9.91798e-05
25 *99:RESET_B *43:8 6.24895e-05
26 *100:CLK *43:89 0
27 *104:A *43:70 2.4754e-05
28 *104:A *43:89 3.97181e-05
29 *106:A *43:8 4.48884e-06
30 *114:A *43:56 5.50049e-05
31 *3:15 *86:A2 9.58714e-05
32 *4:10 *43:29 0.000177778
33 *4:10 *43:48 0.000163684
34 *12:11 *43:56 0.000154766
35 *16:10 *43:89 3.04661e-05
36 *17:10 *43:48 1.01436e-05
37 *21:12 *88:A3 0.000276775
38 *21:12 *43:23 0.000130433
39 *23:8 *43:70 9.84851e-05
40 *26:10 *43:48 8.72173e-05
41 *26:10 *43:56 7.19717e-05
42 *27:23 *94:A2 0.000187129
43 *33:14 *86:A2 2.64616e-05
44 *33:14 *43:29 1.96186e-05
45 *33:23 *86:A2 2.64616e-05
46 *33:29 *43:29 3.16665e-05
47 *33:29 *43:70 4.75206e-05
48 *33:42 *43:89 0.000162419
49 *34:14 *43:56 0
50 *36:45 *43:89 0
51 *37:20 *43:29 0
52 *37:20 *43:48 5.42488e-05
53 *38:10 *88:A3 2.96154e-05
54 *40:10 *43:56 0.000295755
55 *42:24 *43:89 0
*RES
1 *99:Q *43:8 40.5271 
2 *43:8 *88:A3 45.8507 
3 *43:8 *43:23 16.9057 
4 *43:23 *43:29 23.3479 
5 *43:29 *86:A2 39.0979 
6 *43:29 *43:48 21.8357 
7 *43:48 *43:56 35.6964 
8 *43:56 *116:A 23 
9 *43:48 *94:A2 25.5271 
10 *43:23 *43:70 3.48 
11 *43:70 *89:C 23.4971 
12 *43:70 *43:89 39.57 
13 *43:89 *92:B1 23 
*END

*D_NET *44 0.0057282
*CONN
*I *92:C1 I *D sky130_fd_sc_hd__o211a_1
*I *94:A3 I *D sky130_fd_sc_hd__a41o_1
*I *89:D I *D sky130_fd_sc_hd__nand4_1
*I *85:A I *D sky130_fd_sc_hd__inv_2
*I *117:A I *D sky130_fd_sc_hd__buf_2
*I *100:Q O *D sky130_fd_sc_hd__dfrtp_1
*CAP
1 *92:C1 0
2 *94:A3 0.000406177
3 *89:D 0
4 *85:A 0
5 *117:A 1.7896e-05
6 *100:Q 0.000133673
7 *44:49 0.000307298
8 *44:41 0.000451615
9 *44:33 0.00102923
10 *44:25 0.00084824
11 *44:12 0.00042554
12 *44:8 0.000171807
13 *84:A *44:49 2.22079e-05
14 *86:B1 *44:33 0.000178517
15 *88:A3 *44:49 8.58383e-05
16 *91:B1 *44:49 8.41012e-05
17 *92:A1 *44:33 9.2964e-05
18 *94:B1 *94:A3 1.08906e-05
19 *98:A1 *94:A3 0.000144904
20 *98:A1 *44:41 4.95477e-05
21 *98:A2 *94:A3 3.7122e-06
22 *98:B1 *94:A3 0.000138725
23 *98:B1 *44:41 0.000102338
24 *98:B1 *44:49 2.3529e-05
25 *100:CLK *94:A3 0
26 *102:RESET_B *44:8 0
27 *104:A *44:49 5.3304e-05
28 *11:15 *117:A 9.91024e-05
29 *11:15 *44:8 0.000153144
30 *11:15 *44:25 4.77213e-05
31 *13:15 *117:A 5.73288e-05
32 *13:15 *44:25 0.000111164
33 *21:12 *44:49 0
34 *27:23 *94:A3 0.000135037
35 *29:10 *94:A3 6.48049e-05
36 *33:29 *44:49 4.5051e-05
37 *36:10 *44:49 3.8586e-05
38 *38:10 *44:49 1.14452e-05
39 *39:8 *44:8 0
40 *43:23 *44:49 4.3407e-05
41 *43:70 *44:49 0.000139357
*RES
1 *100:Q *44:8 40.9621 
2 *44:8 *44:12 15.6214 
3 *44:12 *117:A 24.0979 
4 *44:12 *44:25 7.08429 
5 *44:25 *44:33 21.8564 
6 *44:33 *44:41 17.6721 
7 *44:41 *44:49 37.3536 
8 *44:49 *85:A 23 
9 *44:41 *89:D 23 
10 *44:33 *94:A3 45.7264 
11 *44:25 *92:C1 23 
*END
